%nproc=40
%mem=50gb
# mp2/aug-cc-pVTZ Pop=ChelpG

Title: Rah = 0.9121 Rab = 2.8147 Scans

0 1
 N1
 X2                   1     1. 
 H3                   1    Rah      2    90.0
 N4                   1    Rab      2     90.      3     0.       0
 H5                   4    R1       1    A1       2     180.     0
 H6                   4    R2       5    A2       1    D1       0
 H7                   4    R2       5    A2       1    -D1      0
 H8                   1    R3       3    A3       5    D2       0
 H9                   1    R3       3    A3       5    -D2      0
       Variables:
  R1                   1.0136                   
  R2                   1.0134                    
  R3                   1.0117                    
  A1                   108.5113                     
  A2                  106.4698                     
  A3                  108.6376                     
  D1                  123.3967                     
  D2                  122.1465  
  Rah                  0.9121       
  Rab                  2.8147  

--Link1--
%nproc=40
%mem=50gb
# mp2/aug-cc-pVTZ Pop=ChelpG

Title: Rah = 0.9221 Rab = 2.8147 Scans

0 1
 N1
 X2                   1     1. 
 H3                   1    Rah      2    90.0
 N4                   1    Rab      2     90.      3     0.       0
 H5                   4    R1       1    A1       2     180.     0
 H6                   4    R2       5    A2       1    D1       0
 H7                   4    R2       5    A2       1    -D1      0
 H8                   1    R3       3    A3       5    D2       0
 H9                   1    R3       3    A3       5    -D2      0
       Variables:
  R1                   1.0136                   
  R2                   1.0134                    
  R3                   1.0117                    
  A1                   108.5113                     
  A2                  106.4698                     
  A3                  108.6376                     
  D1                  123.3967                     
  D2                  122.1465  
  Rah                  0.9221       
  Rab                  2.8147  

--Link1--
%nproc=40
%mem=50gb
# mp2/aug-cc-pVTZ Pop=ChelpG

Title: Rah = 0.9321 Rab = 2.8147 Scans

0 1
 N1
 X2                   1     1. 
 H3                   1    Rah      2    90.0
 N4                   1    Rab      2     90.      3     0.       0
 H5                   4    R1       1    A1       2     180.     0
 H6                   4    R2       5    A2       1    D1       0
 H7                   4    R2       5    A2       1    -D1      0
 H8                   1    R3       3    A3       5    D2       0
 H9                   1    R3       3    A3       5    -D2      0
       Variables:
  R1                   1.0136                   
  R2                   1.0134                    
  R3                   1.0117                    
  A1                   108.5113                     
  A2                  106.4698                     
  A3                  108.6376                     
  D1                  123.3967                     
  D2                  122.1465  
  Rah                  0.9321       
  Rab                  2.8147  

--Link1--
%nproc=40
%mem=50gb
# mp2/aug-cc-pVTZ Pop=ChelpG

Title: Rah = 0.9421 Rab = 2.8147 Scans

0 1
 N1
 X2                   1     1. 
 H3                   1    Rah      2    90.0
 N4                   1    Rab      2     90.      3     0.       0
 H5                   4    R1       1    A1       2     180.     0
 H6                   4    R2       5    A2       1    D1       0
 H7                   4    R2       5    A2       1    -D1      0
 H8                   1    R3       3    A3       5    D2       0
 H9                   1    R3       3    A3       5    -D2      0
       Variables:
  R1                   1.0136                   
  R2                   1.0134                    
  R3                   1.0117                    
  A1                   108.5113                     
  A2                  106.4698                     
  A3                  108.6376                     
  D1                  123.3967                     
  D2                  122.1465  
  Rah                  0.9421       
  Rab                  2.8147  

--Link1--
%nproc=40
%mem=50gb
# mp2/aug-cc-pVTZ Pop=ChelpG

Title: Rah = 0.9521 Rab = 2.8147 Scans

0 1
 N1
 X2                   1     1. 
 H3                   1    Rah      2    90.0
 N4                   1    Rab      2     90.      3     0.       0
 H5                   4    R1       1    A1       2     180.     0
 H6                   4    R2       5    A2       1    D1       0
 H7                   4    R2       5    A2       1    -D1      0
 H8                   1    R3       3    A3       5    D2       0
 H9                   1    R3       3    A3       5    -D2      0
       Variables:
  R1                   1.0136                   
  R2                   1.0134                    
  R3                   1.0117                    
  A1                   108.5113                     
  A2                  106.4698                     
  A3                  108.6376                     
  D1                  123.3967                     
  D2                  122.1465  
  Rah                  0.9521       
  Rab                  2.8147  

--Link1--
%nproc=40
%mem=50gb
# mp2/aug-cc-pVTZ Pop=ChelpG

Title: Rah = 0.9621 Rab = 2.8147 Scans

0 1
 N1
 X2                   1     1. 
 H3                   1    Rah      2    90.0
 N4                   1    Rab      2     90.      3     0.       0
 H5                   4    R1       1    A1       2     180.     0
 H6                   4    R2       5    A2       1    D1       0
 H7                   4    R2       5    A2       1    -D1      0
 H8                   1    R3       3    A3       5    D2       0
 H9                   1    R3       3    A3       5    -D2      0
       Variables:
  R1                   1.0136                   
  R2                   1.0134                    
  R3                   1.0117                    
  A1                   108.5113                     
  A2                  106.4698                     
  A3                  108.6376                     
  D1                  123.3967                     
  D2                  122.1465  
  Rah                  0.9621       
  Rab                  2.8147  

--Link1--
%nproc=40
%mem=50gb
# mp2/aug-cc-pVTZ Pop=ChelpG

Title: Rah = 0.9721 Rab = 2.8147 Scans

0 1
 N1
 X2                   1     1. 
 H3                   1    Rah      2    90.0
 N4                   1    Rab      2     90.      3     0.       0
 H5                   4    R1       1    A1       2     180.     0
 H6                   4    R2       5    A2       1    D1       0
 H7                   4    R2       5    A2       1    -D1      0
 H8                   1    R3       3    A3       5    D2       0
 H9                   1    R3       3    A3       5    -D2      0
       Variables:
  R1                   1.0136                   
  R2                   1.0134                    
  R3                   1.0117                    
  A1                   108.5113                     
  A2                  106.4698                     
  A3                  108.6376                     
  D1                  123.3967                     
  D2                  122.1465  
  Rah                  0.9721       
  Rab                  2.8147  

--Link1--
%nproc=40
%mem=50gb
# mp2/aug-cc-pVTZ Pop=ChelpG

Title: Rah = 0.9821 Rab = 2.8147 Scans

0 1
 N1
 X2                   1     1. 
 H3                   1    Rah      2    90.0
 N4                   1    Rab      2     90.      3     0.       0
 H5                   4    R1       1    A1       2     180.     0
 H6                   4    R2       5    A2       1    D1       0
 H7                   4    R2       5    A2       1    -D1      0
 H8                   1    R3       3    A3       5    D2       0
 H9                   1    R3       3    A3       5    -D2      0
       Variables:
  R1                   1.0136                   
  R2                   1.0134                    
  R3                   1.0117                    
  A1                   108.5113                     
  A2                  106.4698                     
  A3                  108.6376                     
  D1                  123.3967                     
  D2                  122.1465  
  Rah                  0.9821       
  Rab                  2.8147  

--Link1--
%nproc=40
%mem=50gb
# mp2/aug-cc-pVTZ Pop=ChelpG

Title: Rah = 0.9921 Rab = 2.8147 Scans

0 1
 N1
 X2                   1     1. 
 H3                   1    Rah      2    90.0
 N4                   1    Rab      2     90.      3     0.       0
 H5                   4    R1       1    A1       2     180.     0
 H6                   4    R2       5    A2       1    D1       0
 H7                   4    R2       5    A2       1    -D1      0
 H8                   1    R3       3    A3       5    D2       0
 H9                   1    R3       3    A3       5    -D2      0
       Variables:
  R1                   1.0136                   
  R2                   1.0134                    
  R3                   1.0117                    
  A1                   108.5113                     
  A2                  106.4698                     
  A3                  108.6376                     
  D1                  123.3967                     
  D2                  122.1465  
  Rah                  0.9921       
  Rab                  2.8147  

--Link1--
%nproc=40
%mem=50gb
# mp2/aug-cc-pVTZ Pop=ChelpG

Title: Rah = 1.0021 Rab = 2.8147 Scans

0 1
 N1
 X2                   1     1. 
 H3                   1    Rah      2    90.0
 N4                   1    Rab      2     90.      3     0.       0
 H5                   4    R1       1    A1       2     180.     0
 H6                   4    R2       5    A2       1    D1       0
 H7                   4    R2       5    A2       1    -D1      0
 H8                   1    R3       3    A3       5    D2       0
 H9                   1    R3       3    A3       5    -D2      0
       Variables:
  R1                   1.0136                   
  R2                   1.0134                    
  R3                   1.0117                    
  A1                   108.5113                     
  A2                  106.4698                     
  A3                  108.6376                     
  D1                  123.3967                     
  D2                  122.1465  
  Rah                  1.0021       
  Rab                  2.8147  

--Link1--
%nproc=40
%mem=50gb
# mp2/aug-cc-pVTZ Pop=ChelpG

Title: Rah = 1.0121 Rab = 2.8147 Scans

0 1
 N1
 X2                   1     1. 
 H3                   1    Rah      2    90.0
 N4                   1    Rab      2     90.      3     0.       0
 H5                   4    R1       1    A1       2     180.     0
 H6                   4    R2       5    A2       1    D1       0
 H7                   4    R2       5    A2       1    -D1      0
 H8                   1    R3       3    A3       5    D2       0
 H9                   1    R3       3    A3       5    -D2      0
       Variables:
  R1                   1.0136                   
  R2                   1.0134                    
  R3                   1.0117                    
  A1                   108.5113                     
  A2                  106.4698                     
  A3                  108.6376                     
  D1                  123.3967                     
  D2                  122.1465  
  Rah                  1.0121       
  Rab                  2.8147  

--Link1--
%nproc=40
%mem=50gb
# mp2/aug-cc-pVTZ Pop=ChelpG

Title: Rah = 1.0221 Rab = 2.8147 Scans

0 1
 N1
 X2                   1     1. 
 H3                   1    Rah      2    90.0
 N4                   1    Rab      2     90.      3     0.       0
 H5                   4    R1       1    A1       2     180.     0
 H6                   4    R2       5    A2       1    D1       0
 H7                   4    R2       5    A2       1    -D1      0
 H8                   1    R3       3    A3       5    D2       0
 H9                   1    R3       3    A3       5    -D2      0
       Variables:
  R1                   1.0136                   
  R2                   1.0134                    
  R3                   1.0117                    
  A1                   108.5113                     
  A2                  106.4698                     
  A3                  108.6376                     
  D1                  123.3967                     
  D2                  122.1465  
  Rah                  1.0221       
  Rab                  2.8147  

--Link1--
%nproc=40
%mem=50gb
# mp2/aug-cc-pVTZ Pop=ChelpG

Title: Rah = 1.0321 Rab = 2.8147 Scans

0 1
 N1
 X2                   1     1. 
 H3                   1    Rah      2    90.0
 N4                   1    Rab      2     90.      3     0.       0
 H5                   4    R1       1    A1       2     180.     0
 H6                   4    R2       5    A2       1    D1       0
 H7                   4    R2       5    A2       1    -D1      0
 H8                   1    R3       3    A3       5    D2       0
 H9                   1    R3       3    A3       5    -D2      0
       Variables:
  R1                   1.0136                   
  R2                   1.0134                    
  R3                   1.0117                    
  A1                   108.5113                     
  A2                  106.4698                     
  A3                  108.6376                     
  D1                  123.3967                     
  D2                  122.1465  
  Rah                  1.0321       
  Rab                  2.8147  

--Link1--
%nproc=40
%mem=50gb
# mp2/aug-cc-pVTZ Pop=ChelpG

Title: Rah = 1.0421 Rab = 2.8147 Scans

0 1
 N1
 X2                   1     1. 
 H3                   1    Rah      2    90.0
 N4                   1    Rab      2     90.      3     0.       0
 H5                   4    R1       1    A1       2     180.     0
 H6                   4    R2       5    A2       1    D1       0
 H7                   4    R2       5    A2       1    -D1      0
 H8                   1    R3       3    A3       5    D2       0
 H9                   1    R3       3    A3       5    -D2      0
       Variables:
  R1                   1.0136                   
  R2                   1.0134                    
  R3                   1.0117                    
  A1                   108.5113                     
  A2                  106.4698                     
  A3                  108.6376                     
  D1                  123.3967                     
  D2                  122.1465  
  Rah                  1.0421       
  Rab                  2.8147  

--Link1--
%nproc=40
%mem=50gb
# mp2/aug-cc-pVTZ Pop=ChelpG

Title: Rah = 1.0521 Rab = 2.8147 Scans

0 1
 N1
 X2                   1     1. 
 H3                   1    Rah      2    90.0
 N4                   1    Rab      2     90.      3     0.       0
 H5                   4    R1       1    A1       2     180.     0
 H6                   4    R2       5    A2       1    D1       0
 H7                   4    R2       5    A2       1    -D1      0
 H8                   1    R3       3    A3       5    D2       0
 H9                   1    R3       3    A3       5    -D2      0
       Variables:
  R1                   1.0136                   
  R2                   1.0134                    
  R3                   1.0117                    
  A1                   108.5113                     
  A2                  106.4698                     
  A3                  108.6376                     
  D1                  123.3967                     
  D2                  122.1465  
  Rah                  1.0521       
  Rab                  2.8147  

--Link1--
%nproc=40
%mem=50gb
# mp2/aug-cc-pVTZ Pop=ChelpG

Title: Rah = 1.0621 Rab = 2.8147 Scans

0 1
 N1
 X2                   1     1. 
 H3                   1    Rah      2    90.0
 N4                   1    Rab      2     90.      3     0.       0
 H5                   4    R1       1    A1       2     180.     0
 H6                   4    R2       5    A2       1    D1       0
 H7                   4    R2       5    A2       1    -D1      0
 H8                   1    R3       3    A3       5    D2       0
 H9                   1    R3       3    A3       5    -D2      0
       Variables:
  R1                   1.0136                   
  R2                   1.0134                    
  R3                   1.0117                    
  A1                   108.5113                     
  A2                  106.4698                     
  A3                  108.6376                     
  D1                  123.3967                     
  D2                  122.1465  
  Rah                  1.0621       
  Rab                  2.8147  

--Link1--
%nproc=40
%mem=50gb
# mp2/aug-cc-pVTZ Pop=ChelpG

Title: Rah = 1.0721 Rab = 2.8147 Scans

0 1
 N1
 X2                   1     1. 
 H3                   1    Rah      2    90.0
 N4                   1    Rab      2     90.      3     0.       0
 H5                   4    R1       1    A1       2     180.     0
 H6                   4    R2       5    A2       1    D1       0
 H7                   4    R2       5    A2       1    -D1      0
 H8                   1    R3       3    A3       5    D2       0
 H9                   1    R3       3    A3       5    -D2      0
       Variables:
  R1                   1.0136                   
  R2                   1.0134                    
  R3                   1.0117                    
  A1                   108.5113                     
  A2                  106.4698                     
  A3                  108.6376                     
  D1                  123.3967                     
  D2                  122.1465  
  Rah                  1.0721       
  Rab                  2.8147  

--Link1--
%nproc=40
%mem=50gb
# mp2/aug-cc-pVTZ Pop=ChelpG

Title: Rah = 1.0821 Rab = 2.8147 Scans

0 1
 N1
 X2                   1     1. 
 H3                   1    Rah      2    90.0
 N4                   1    Rab      2     90.      3     0.       0
 H5                   4    R1       1    A1       2     180.     0
 H6                   4    R2       5    A2       1    D1       0
 H7                   4    R2       5    A2       1    -D1      0
 H8                   1    R3       3    A3       5    D2       0
 H9                   1    R3       3    A3       5    -D2      0
       Variables:
  R1                   1.0136                   
  R2                   1.0134                    
  R3                   1.0117                    
  A1                   108.5113                     
  A2                  106.4698                     
  A3                  108.6376                     
  D1                  123.3967                     
  D2                  122.1465  
  Rah                  1.0821       
  Rab                  2.8147  

--Link1--
%nproc=40
%mem=50gb
# mp2/aug-cc-pVTZ Pop=ChelpG

Title: Rah = 1.0921 Rab = 2.8147 Scans

0 1
 N1
 X2                   1     1. 
 H3                   1    Rah      2    90.0
 N4                   1    Rab      2     90.      3     0.       0
 H5                   4    R1       1    A1       2     180.     0
 H6                   4    R2       5    A2       1    D1       0
 H7                   4    R2       5    A2       1    -D1      0
 H8                   1    R3       3    A3       5    D2       0
 H9                   1    R3       3    A3       5    -D2      0
       Variables:
  R1                   1.0136                   
  R2                   1.0134                    
  R3                   1.0117                    
  A1                   108.5113                     
  A2                  106.4698                     
  A3                  108.6376                     
  D1                  123.3967                     
  D2                  122.1465  
  Rah                  1.0921       
  Rab                  2.8147  

--Link1--
%nproc=40
%mem=50gb
# mp2/aug-cc-pVTZ Pop=ChelpG

Title: Rah = 1.1021 Rab = 2.8147 Scans

0 1
 N1
 X2                   1     1. 
 H3                   1    Rah      2    90.0
 N4                   1    Rab      2     90.      3     0.       0
 H5                   4    R1       1    A1       2     180.     0
 H6                   4    R2       5    A2       1    D1       0
 H7                   4    R2       5    A2       1    -D1      0
 H8                   1    R3       3    A3       5    D2       0
 H9                   1    R3       3    A3       5    -D2      0
       Variables:
  R1                   1.0136                   
  R2                   1.0134                    
  R3                   1.0117                    
  A1                   108.5113                     
  A2                  106.4698                     
  A3                  108.6376                     
  D1                  123.3967                     
  D2                  122.1465  
  Rah                  1.1021       
  Rab                  2.8147  

--Link1--
%nproc=40
%mem=50gb
# mp2/aug-cc-pVTZ Pop=ChelpG

Title: Rah = 1.1121 Rab = 2.8147 Scans

0 1
 N1
 X2                   1     1. 
 H3                   1    Rah      2    90.0
 N4                   1    Rab      2     90.      3     0.       0
 H5                   4    R1       1    A1       2     180.     0
 H6                   4    R2       5    A2       1    D1       0
 H7                   4    R2       5    A2       1    -D1      0
 H8                   1    R3       3    A3       5    D2       0
 H9                   1    R3       3    A3       5    -D2      0
       Variables:
  R1                   1.0136                   
  R2                   1.0134                    
  R3                   1.0117                    
  A1                   108.5113                     
  A2                  106.4698                     
  A3                  108.6376                     
  D1                  123.3967                     
  D2                  122.1465  
  Rah                  1.1121       
  Rab                  2.8147  

--Link1--
%nproc=40
%mem=50gb
# mp2/aug-cc-pVTZ Pop=ChelpG

Title: Rah = 0.9121 Rab = 2.9147 Scans

0 1
 N1
 X2                   1     1. 
 H3                   1    Rah      2    90.0
 N4                   1    Rab      2     90.      3     0.       0
 H5                   4    R1       1    A1       2     180.     0
 H6                   4    R2       5    A2       1    D1       0
 H7                   4    R2       5    A2       1    -D1      0
 H8                   1    R3       3    A3       5    D2       0
 H9                   1    R3       3    A3       5    -D2      0
       Variables:
  R1                   1.0134                   
  R2                   1.0132                    
  R3                   1.0118                    
  A1                   107.6351                     
  A2                  106.5217                     
  A3                  108.1308                     
  D1                  123.3302                     
  D2                  122.4570  
  Rah                  0.9121       
  Rab                  2.9147  

--Link1--
%nproc=40
%mem=50gb
# mp2/aug-cc-pVTZ Pop=ChelpG

Title: Rah = 0.9221 Rab = 2.9147 Scans

0 1
 N1
 X2                   1     1. 
 H3                   1    Rah      2    90.0
 N4                   1    Rab      2     90.      3     0.       0
 H5                   4    R1       1    A1       2     180.     0
 H6                   4    R2       5    A2       1    D1       0
 H7                   4    R2       5    A2       1    -D1      0
 H8                   1    R3       3    A3       5    D2       0
 H9                   1    R3       3    A3       5    -D2      0
       Variables:
  R1                   1.0134                   
  R2                   1.0132                    
  R3                   1.0118                    
  A1                   107.6351                     
  A2                  106.5217                     
  A3                  108.1308                     
  D1                  123.3302                     
  D2                  122.4570  
  Rah                  0.9221       
  Rab                  2.9147  

--Link1--
%nproc=40
%mem=50gb
# mp2/aug-cc-pVTZ Pop=ChelpG

Title: Rah = 0.9321 Rab = 2.9147 Scans

0 1
 N1
 X2                   1     1. 
 H3                   1    Rah      2    90.0
 N4                   1    Rab      2     90.      3     0.       0
 H5                   4    R1       1    A1       2     180.     0
 H6                   4    R2       5    A2       1    D1       0
 H7                   4    R2       5    A2       1    -D1      0
 H8                   1    R3       3    A3       5    D2       0
 H9                   1    R3       3    A3       5    -D2      0
       Variables:
  R1                   1.0134                   
  R2                   1.0132                    
  R3                   1.0118                    
  A1                   107.6351                     
  A2                  106.5217                     
  A3                  108.1308                     
  D1                  123.3302                     
  D2                  122.4570  
  Rah                  0.9321       
  Rab                  2.9147  

--Link1--
%nproc=40
%mem=50gb
# mp2/aug-cc-pVTZ Pop=ChelpG

Title: Rah = 0.9421 Rab = 2.9147 Scans

0 1
 N1
 X2                   1     1. 
 H3                   1    Rah      2    90.0
 N4                   1    Rab      2     90.      3     0.       0
 H5                   4    R1       1    A1       2     180.     0
 H6                   4    R2       5    A2       1    D1       0
 H7                   4    R2       5    A2       1    -D1      0
 H8                   1    R3       3    A3       5    D2       0
 H9                   1    R3       3    A3       5    -D2      0
       Variables:
  R1                   1.0134                   
  R2                   1.0132                    
  R3                   1.0118                    
  A1                   107.6351                     
  A2                  106.5217                     
  A3                  108.1308                     
  D1                  123.3302                     
  D2                  122.4570  
  Rah                  0.9421       
  Rab                  2.9147  

--Link1--
%nproc=40
%mem=50gb
# mp2/aug-cc-pVTZ Pop=ChelpG

Title: Rah = 0.9521 Rab = 2.9147 Scans

0 1
 N1
 X2                   1     1. 
 H3                   1    Rah      2    90.0
 N4                   1    Rab      2     90.      3     0.       0
 H5                   4    R1       1    A1       2     180.     0
 H6                   4    R2       5    A2       1    D1       0
 H7                   4    R2       5    A2       1    -D1      0
 H8                   1    R3       3    A3       5    D2       0
 H9                   1    R3       3    A3       5    -D2      0
       Variables:
  R1                   1.0134                   
  R2                   1.0132                    
  R3                   1.0118                    
  A1                   107.6351                     
  A2                  106.5217                     
  A3                  108.1308                     
  D1                  123.3302                     
  D2                  122.4570  
  Rah                  0.9521       
  Rab                  2.9147  

--Link1--
%nproc=40
%mem=50gb
# mp2/aug-cc-pVTZ Pop=ChelpG

Title: Rah = 0.9621 Rab = 2.9147 Scans

0 1
 N1
 X2                   1     1. 
 H3                   1    Rah      2    90.0
 N4                   1    Rab      2     90.      3     0.       0
 H5                   4    R1       1    A1       2     180.     0
 H6                   4    R2       5    A2       1    D1       0
 H7                   4    R2       5    A2       1    -D1      0
 H8                   1    R3       3    A3       5    D2       0
 H9                   1    R3       3    A3       5    -D2      0
       Variables:
  R1                   1.0134                   
  R2                   1.0132                    
  R3                   1.0118                    
  A1                   107.6351                     
  A2                  106.5217                     
  A3                  108.1308                     
  D1                  123.3302                     
  D2                  122.4570  
  Rah                  0.9621       
  Rab                  2.9147  

--Link1--
%nproc=40
%mem=50gb
# mp2/aug-cc-pVTZ Pop=ChelpG

Title: Rah = 0.9721 Rab = 2.9147 Scans

0 1
 N1
 X2                   1     1. 
 H3                   1    Rah      2    90.0
 N4                   1    Rab      2     90.      3     0.       0
 H5                   4    R1       1    A1       2     180.     0
 H6                   4    R2       5    A2       1    D1       0
 H7                   4    R2       5    A2       1    -D1      0
 H8                   1    R3       3    A3       5    D2       0
 H9                   1    R3       3    A3       5    -D2      0
       Variables:
  R1                   1.0134                   
  R2                   1.0132                    
  R3                   1.0118                    
  A1                   107.6351                     
  A2                  106.5217                     
  A3                  108.1308                     
  D1                  123.3302                     
  D2                  122.4570  
  Rah                  0.9721       
  Rab                  2.9147  

--Link1--
%nproc=40
%mem=50gb
# mp2/aug-cc-pVTZ Pop=ChelpG

Title: Rah = 0.9821 Rab = 2.9147 Scans

0 1
 N1
 X2                   1     1. 
 H3                   1    Rah      2    90.0