%nproc=28
%mem=50gb
# mp2/aug-cc-pVTZ pop=ChelpG

Title: Rah = 0.8218 Rab = 2.1428 Scans

0 1
 F1
 X2                   1     1. 
 H3                   1    Rah      2    90.0
 O4                   1    Rab      2     90.      3     0.       0
 H5                   4    R1       1    A1       2    D1       0
 H6                   4    R1       1    A1       2    -D1      0
       Variables:
  R1                 0.9627                      
  A1                 116.9645                      
  D1                 116.0606         
  Rah                0.8218    
  Rab                2.1428 

--Link1--
%nproc=28
%mem=50gb
# mp2/aug-cc-pVTZ pop=ChelpG

Title: Rah = 0.8318 Rab = 2.1428 Scans

0 1
 F1
 X2                   1     1. 
 H3                   1    Rah      2    90.0
 O4                   1    Rab      2     90.      3     0.       0
 H5                   4    R1       1    A1       2    D1       0
 H6                   4    R1       1    A1       2    -D1      0
       Variables:
  R1                 0.9627                      
  A1                 116.9645                      
  D1                 116.0606         
  Rah                0.8318    
  Rab                2.1428 

--Link1--
%nproc=28
%mem=50gb
# mp2/aug-cc-pVTZ pop=ChelpG

Title: Rah = 0.8418 Rab = 2.1428 Scans

0 1
 F1
 X2                   1     1. 
 H3                   1    Rah      2    90.0
 O4                   1    Rab      2     90.      3     0.       0
 H5                   4    R1       1    A1       2    D1       0
 H6                   4    R1       1    A1       2    -D1      0
       Variables:
  R1                 0.9627                      
  A1                 116.9645                      
  D1                 116.0606         
  Rah                0.8418    
  Rab                2.1428 

--Link1--
%nproc=28
%mem=50gb
# mp2/aug-cc-pVTZ pop=ChelpG

Title: Rah = 0.8518 Rab = 2.1428 Scans

0 1
 F1
 X2                   1     1. 
 H3                   1    Rah      2    90.0
 O4                   1    Rab      2     90.      3     0.       0
 H5                   4    R1       1    A1       2    D1       0
 H6                   4    R1       1    A1       2    -D1      0
       Variables:
  R1                 0.9627                      
  A1                 116.9645                      
  D1                 116.0606         
  Rah                0.8518    
  Rab                2.1428 

--Link1--
%nproc=28
%mem=50gb
# mp2/aug-cc-pVTZ pop=ChelpG

Title: Rah = 0.8618 Rab = 2.1428 Scans

0 1
 F1
 X2                   1     1. 
 H3                   1    Rah      2    90.0
 O4                   1    Rab      2     90.      3     0.       0
 H5                   4    R1       1    A1       2    D1       0
 H6                   4    R1       1    A1       2    -D1      0
       Variables:
  R1                 0.9627                      
  A1                 116.9645                      
  D1                 116.0606         
  Rah                0.8618    
  Rab                2.1428 

--Link1--
%nproc=28
%mem=50gb
# mp2/aug-cc-pVTZ pop=ChelpG

Title: Rah = 0.8718 Rab = 2.1428 Scans

0 1
 F1
 X2                   1     1. 
 H3                   1    Rah      2    90.0
 O4                   1    Rab      2     90.      3     0.       0
 H5                   4    R1       1    A1       2    D1       0
 H6                   4    R1       1    A1       2    -D1      0
       Variables:
  R1                 0.9627                      
  A1                 116.9645                      
  D1                 116.0606         
  Rah                0.8718    
  Rab                2.1428 

--Link1--
%nproc=28
%mem=50gb
# mp2/aug-cc-pVTZ pop=ChelpG

Title: Rah = 0.8818 Rab = 2.1428 Scans

0 1
 F1
 X2                   1     1. 
 H3                   1    Rah      2    90.0
 O4                   1    Rab      2     90.      3     0.       0
 H5                   4    R1       1    A1       2    D1       0
 H6                   4    R1       1    A1       2    -D1      0
       Variables:
  R1                 0.9627                      
  A1                 116.9645                      
  D1                 116.0606         
  Rah                0.8818    
  Rab                2.1428 

--Link1--
%nproc=28
%mem=50gb
# mp2/aug-cc-pVTZ pop=ChelpG

Title: Rah = 0.8918 Rab = 2.1428 Scans

0 1
 F1
 X2                   1     1. 
 H3                   1    Rah      2    90.0
 O4                   1    Rab      2     90.      3     0.       0
 H5                   4    R1       1    A1       2    D1       0
 H6                   4    R1       1    A1       2    -D1      0
       Variables:
  R1                 0.9627                      
  A1                 116.9645                      
  D1                 116.0606         
  Rah                0.8918    
  Rab                2.1428 

--Link1--
%nproc=28
%mem=50gb
# mp2/aug-cc-pVTZ pop=ChelpG

Title: Rah = 0.9018 Rab = 2.1428 Scans

0 1
 F1
 X2                   1     1. 
 H3                   1    Rah      2    90.0
 O4                   1    Rab      2     90.      3     0.       0
 H5                   4    R1       1    A1       2    D1       0
 H6                   4    R1       1    A1       2    -D1      0
       Variables:
  R1                 0.9627                      
  A1                 116.9645                      
  D1                 116.0606         
  Rah                0.9018    
  Rab                2.1428 

--Link1--
%nproc=28
%mem=50gb
# mp2/aug-cc-pVTZ pop=ChelpG

Title: Rah = 0.9118 Rab = 2.1428 Scans

0 1
 F1
 X2                   1     1. 
 H3                   1    Rah      2    90.0
 O4                   1    Rab      2     90.      3     0.       0
 H5                   4    R1       1    A1       2    D1       0
 H6                   4    R1       1    A1       2    -D1      0
       Variables:
  R1                 0.9627                      
  A1                 116.9645                      
  D1                 116.0606         
  Rah                0.9118    
  Rab                2.1428 

--Link1--
%nproc=28
%mem=50gb
# mp2/aug-cc-pVTZ pop=ChelpG

Title: Rah = 0.9218 Rab = 2.1428 Scans

0 1
 F1
 X2                   1     1. 
 H3                   1    Rah      2    90.0
 O4                   1    Rab      2     90.      3     0.       0
 H5                   4    R1       1    A1       2    D1       0
 H6                   4    R1       1    A1       2    -D1      0
       Variables:
  R1                 0.9627                      
  A1                 116.9645                      
  D1                 116.0606         
  Rah                0.9218    
  Rab                2.1428 

--Link1--
%nproc=28
%mem=50gb
# mp2/aug-cc-pVTZ pop=ChelpG

Title: Rah = 0.9318 Rab = 2.1428 Scans

0 1
 F1
 X2                   1     1. 
 H3                   1    Rah      2    90.0
 O4                   1    Rab      2     90.      3     0.       0
 H5                   4    R1       1    A1       2    D1       0
 H6                   4    R1       1    A1       2    -D1      0
       Variables:
  R1                 0.9627                      
  A1                 116.9645                      
  D1                 116.0606         
  Rah                0.9318    
  Rab                2.1428 

--Link1--
%nproc=28
%mem=50gb
# mp2/aug-cc-pVTZ pop=ChelpG

Title: Rah = 0.9418 Rab = 2.1428 Scans

0 1
 F1
 X2                   1     1. 
 H3                   1    Rah      2    90.0
 O4                   1    Rab      2     90.      3     0.       0
 H5                   4    R1       1    A1       2    D1       0
 H6                   4    R1       1    A1       2    -D1      0
       Variables:
  R1                 0.9627                      
  A1                 116.9645                      
  D1                 116.0606         
  Rah                0.9418    
  Rab                2.1428 

--Link1--
%nproc=28
%mem=50gb
# mp2/aug-cc-pVTZ pop=ChelpG

Title: Rah = 0.9518 Rab = 2.1428 Scans

0 1
 F1
 X2                   1     1. 
 H3                   1    Rah      2    90.0
 O4                   1    Rab      2     90.      3     0.       0
 H5                   4    R1       1    A1       2    D1       0
 H6                   4    R1       1    A1       2    -D1      0
       Variables:
  R1                 0.9627                      
  A1                 116.9645                      
  D1                 116.0606         
  Rah                0.9518    
  Rab                2.1428 

--Link1--
%nproc=28
%mem=50gb
# mp2/aug-cc-pVTZ pop=ChelpG

Title: Rah = 0.9618 Rab = 2.1428 Scans

0 1
 F1
 X2                   1     1. 
 H3                   1    Rah      2    90.0
 O4                   1    Rab      2     90.      3     0.       0
 H5                   4    R1       1    A1       2    D1       0
 H6                   4    R1       1    A1       2    -D1      0
       Variables:
  R1                 0.9627                      
  A1                 116.9645                      
  D1                 116.0606         
  Rah                0.9618    
  Rab                2.1428 

--Link1--
%nproc=28
%mem=50gb
# mp2/aug-cc-pVTZ pop=ChelpG

Title: Rah = 0.9718 Rab = 2.1428 Scans

0 1
 F1
 X2                   1     1. 
 H3                   1    Rah      2    90.0
 O4                   1    Rab      2     90.      3     0.       0
 H5                   4    R1       1    A1       2    D1       0
 H6                   4    R1       1    A1       2    -D1      0
       Variables:
  R1                 0.9627                      
  A1                 116.9645                      
  D1                 116.0606         
  Rah                0.9718    
  Rab                2.1428 

--Link1--
%nproc=28
%mem=50gb
# mp2/aug-cc-pVTZ pop=ChelpG

Title: Rah = 0.9818 Rab = 2.1428 Scans

0 1
 F1
 X2                   1     1. 
 H3                   1    Rah      2    90.0
 O4                   1    Rab      2     90.      3     0.       0
 H5                   4    R1       1    A1       2    D1       0
 H6                   4    R1       1    A1       2    -D1      0
       Variables:
  R1                 0.9627                      
  A1                 116.9645                      
  D1                 116.0606         
  Rah                0.9818    
  Rab                2.1428 

--Link1--
%nproc=28
%mem=50gb
# mp2/aug-cc-pVTZ pop=ChelpG

Title: Rah = 0.9918 Rab = 2.1428 Scans

0 1
 F1
 X2                   1     1. 
 H3                   1    Rah      2    90.0
 O4                   1    Rab      2     90.      3     0.       0
 H5                   4    R1       1    A1       2    D1       0
 H6                   4    R1       1    A1       2    -D1      0
       Variables:
  R1                 0.9627                      
  A1                 116.9645                      
  D1                 116.0606         
  Rah                0.9918    
  Rab                2.1428 

--Link1--
%nproc=28
%mem=50gb
# mp2/aug-cc-pVTZ pop=ChelpG

Title: Rah = 1.0018 Rab = 2.1428 Scans

0 1
 F1
 X2                   1     1. 
 H3                   1    Rah      2    90.0
 O4                   1    Rab      2     90.      3     0.       0
 H5                   4    R1       1    A1       2    D1       0
 H6                   4    R1       1    A1       2    -D1      0
       Variables:
  R1                 0.9627                      
  A1                 116.9645                      
  D1                 116.0606         
  Rah                1.0018    
  Rab                2.1428 

--Link1--
%nproc=28
%mem=50gb
# mp2/aug-cc-pVTZ pop=ChelpG

Title: Rah = 1.0118 Rab = 2.1428 Scans

0 1
 F1
 X2                   1     1. 
 H3                   1    Rah      2    90.0
 O4                   1    Rab      2     90.      3     0.       0
 H5                   4    R1       1    A1       2    D1       0
 H6                   4    R1       1    A1       2    -D1      0
       Variables:
  R1                 0.9627                      
  A1                 116.9645                      
  D1                 116.0606         
  Rah                1.0118    
  Rab                2.1428 

--Link1--
%nproc=28
%mem=50gb
# mp2/aug-cc-pVTZ pop=ChelpG

Title: Rah = 1.0218 Rab = 2.1428 Scans

0 1
 F1
 X2                   1     1. 
 H3                   1    Rah      2    90.0
 O4                   1    Rab      2     90.      3     0.       0
 H5                   4    R1       1    A1       2    D1       0
 H6                   4    R1       1    A1       2    -D1      0
       Variables:
  R1                 0.9627                      
  A1                 116.9645                      
  D1                 116.0606         
  Rah                1.0218    
  Rab                2.1428 

--Link1--
%nproc=28
%mem=50gb
# mp2/aug-cc-pVTZ pop=ChelpG

Title: Rah = 0.8218 Rab = 2.2428 Scans

0 1
 F1
 X2                   1     1. 
 H3                   1    Rah      2    90.0
 O4                   1    Rab      2     90.      3     0.       0
 H5                   4    R1       1    A1       2    D1       0
 H6                   4    R1       1    A1       2    -D1      0
       Variables:
  R1                 0.9628                      
  A1                 115.7890                      
  D1                 117.4949         
  Rah                0.8218    
  Rab                2.2428 

--Link1--
%nproc=28
%mem=50gb
# mp2/aug-cc-pVTZ pop=ChelpG

Title: Rah = 0.8318 Rab = 2.2428 Scans

0 1
 F1
 X2                   1     1. 
 H3                   1    Rah      2    90.0
 O4                   1    Rab      2     90.      3     0.       0
 H5                   4    R1       1    A1       2    D1       0
 H6                   4    R1       1    A1       2    -D1      0
       Variables:
  R1                 0.9628                      
  A1                 115.7890                      
  D1                 117.4949         
  Rah                0.8318    
  Rab                2.2428 

--Link1--
%nproc=28
%mem=50gb
# mp2/aug-cc-pVTZ pop=ChelpG

Title: Rah = 0.8418 Rab = 2.2428 Scans

0 1
 F1
 X2                   1     1. 
 H3                   1    Rah      2    90.0
 O4                   1    Rab      2     90.      3     0.       0
 H5                   4    R1       1    A1       2    D1       0
 H6                   4    R1       1    A1       2    -D1      0
       Variables:
  R1                 0.9628                      
  A1                 115.7890                      
  D1                 117.4949         
  Rah                0.8418    
  Rab                2.2428 

--Link1--
%nproc=28
%mem=50gb
# mp2/aug-cc-pVTZ pop=ChelpG

Title: Rah = 0.8518 Rab = 2.2428 Scans

0 1
 F1
 X2                   1     1. 
 H3                   1    Rah      2    90.0
 O4                   1    Rab      2     90.      3     0.       0
 H5                   4    R1       1    A1       2    D1       0
 H6                   4    R1       1    A1       2    -D1      0
       Variables:
  R1                 0.9628                      
  A1                 115.7890                      
  D1                 117.4949         
  Rah                0.8518    
  Rab                2.2428 

--Link1--
%nproc=28
%mem=50gb
# mp2/aug-cc-pVTZ pop=ChelpG

Title: Rah = 0.8618 Rab = 2.2428 Scans

0 1
 F1
 X2                   1     1. 
 H3                   1    Rah      2    90.0
 O4                   1    Rab      2     90.      3     0.       0
 H5                   4    R1       1    A1       2    D1       0
 H6                   4    R1       1    A1       2    -D1      0
       Variables:
  R1                 0.9628                      
  A1                 115.7890                      
  D1                 117.4949         
  Rah                0.8618    
  Rab                2.2428 

--Link1--
%nproc=28
%mem=50gb
# mp2/aug-cc-pVTZ pop=ChelpG

Title: Rah = 0.8718 Rab = 2.2428 Scans

0 1
 F1
 X2                   1     1. 
 H3                   1    Rah      2    90.0
 O4                   1    Rab      2     90.      3     0.       0
 H5                   4    R1       1    A1       2    D1       0
 H6                   4    R1       1    A1       2    -D1      0
       Variables:
  R1                 0.9628                      
  A1                 115.7890                      
  D1                 117.4949         
  Rah                0.8718    
  Rab                2.2428 

--Link1--
%nproc=28
%mem=50gb
# mp2/aug-cc-pVTZ pop=ChelpG

Title: Rah = 0.8818 Rab = 2.2428 Scans

0 1
 F1
 X2                   1     1. 
 H3                   1    Rah      2    90.0
 O4                   1    Rab      2     90.      3     0.       0
 H5                   4    R1       1    A1       2    D1       0
 H6                   4    R1       1    A1       2    -D1      0
       Variables:
  R1                 0.9628                      
  A1                 115.7890                      
  D1                 117.4949         
  Rah                0.8818    
  Rab                2.2428 

--Link1--
%nproc=28
%mem=50gb
# mp2/aug-cc-pVTZ pop=ChelpG

Title: Rah = 0.8918 Rab = 2.2428 Scans

0 1
 F1
 X2                   1     1. 
 H3                   1    Rah      2    90.0
 O4                   1    Rab      2     90.      3     0.       0
 H5                   4    R1       1    A1       2    D1       0
 H6                   4    R1       1    A1       2    -D1      0
       Variables:
  R1                 0.9628                      
  A1                 115.7890                      
  D1                 117.4949         
  Rah                0.8918    
  Rab                2.2428 

--Link1--
%nproc=28
%mem=50gb
# mp2/aug-cc-pVTZ pop=ChelpG

Title: Rah = 0.9018 Rab = 2.2428 Scans

0 1
 F1
 X2                   1     1. 
 H3                   1    Rah      2    90.0
 O4                   1    Rab      2     90.      3     0.       0
 H5                   4    R1       1    A1       2    D1       0
 H6                   4    R1       1    A1       2    -D1      0
       Variables:
  R1                 0.9628                      
  A1                 115.7890                      
  D1                 117.4949         
  Rah                0.9018    
  Rab                2.2428 

--Link1--
%nproc=28
%mem=50gb
# mp2/aug-cc-pVTZ pop=ChelpG

Title: Rah = 0.9118 Rab = 2.2428 Scans

0 1
 F1
 X2                   1     1. 
 H3                   1    Rah      2    90.0
 O4                   1    Rab      2     90.      3     0.       0
 H5                   4    R1       1    A1       2    D1       0
 H6                   4    R1       1    A1       2    -D1      0
       Variables:
  R1                 0.9628                      
  A1                 115.7890                      
  D1                 117.4949         
  Rah                0.9118    
  Rab                2.2428 

--Link1--
%nproc=28
%mem=50gb
# mp2/aug-cc-pVTZ pop=ChelpG

Title: Rah = 0.9218 Rab = 2.2428 Scans

0 1
 F1
 X2                   1     1. 
 H3                   1    Rah      2    90.0
 O4                   1    Rab      2     90.      3     0.       0
 H5                   4    R1       1    A1       2    D1       0
 H6                   4    R1       1    A1       2    -D1      0
       Variables:
  R1                 0.9628                      
  A1                 115.7890                      
  D1                 117.4949         
  Rah                0.9218    
  Rab                2.2428 

--Link1--
%nproc=28
%mem=50gb
# mp2/aug-cc-pVTZ pop=ChelpG

Title: Rah = 0.9318 Rab = 2.2428 Scans

0 1
 F1
 X2                   1     1. 
 H3                   1    Rah      2    90.0
 O4                   1    Rab      2     90.      3     0.       0
 H5                   4    R1       1    A1       2    D1       0
 H6                   4    R1       1    A1       2    -D1      0
       Variables:
  R1                 0.9628                      
  A1                 115.7890                      
  D1                 117.4949         
  Rah                0.9318    
  Rab                2.2428 

--Link1--
%nproc=28
%mem=50gb
# mp2/aug-cc-pVTZ pop=ChelpG

Title: Rah = 0.9418 Rab = 2.2428 Scans

0 1
 F1
 X2                   1     1. 
 H3                   1    Rah      2    90.0
 O4                   1    Rab      2     90.      3     0.       0
 H5                   4    R1       1    A1       2    D1       0
 H6                   4    R1       1    A1       2    -D1      0
       Variables:
  R1                 0.9628                      
  A1                 115.7890                      
  D1                 117.4949         
  Rah                0.9418    
  Rab                2.2428 

--Link1--
%nproc=28
%mem=50gb
# mp2/aug-cc-pVTZ pop=ChelpG

Title: Rah = 0.9518 Rab = 2.2428 Scans

0 1
 F1
 X2                   1     1. 
 H3                   1    Rah      2    90.0
 O4                   1    Rab      2     90.      3     0.       0
 H5                   4    R1       1    A1       2    D1       0
 H6                   4    R1       1    A1       2    -D1      0
       Variables:
  R1                 0.9628                      
  A1                 115.7890                      
  D1                 117.4949         
  Rah                0.9518    
  Rab                2.2428 

--Link1--
%nproc=28
%mem=50gb
# mp2/aug-cc-pVTZ pop=ChelpG

Title: Rah = 0.9618 Rab = 2.2428 Scans

0 1
 F1
 X2                   1     1. 
 H3                   1    Rah      2    90.0
 O4                   1    Rab      2     90.      3     0.       0
 H5                   4    R1       1    A1       2    D1       0
 H6                   4    R1       1    A1       2    -D1      0
       Variables:
  R1                 0.9628                      
  A1                 115.7890                      
  D1                 117.4949         
  Rah                0.9618    
  Rab                2.2428 

--Link1--
%nproc=28
%mem=50gb
# mp2/aug-cc-pVTZ pop=ChelpG

Title: Rah = 0.9718 Rab = 2.2428 Scans

0 1
 F1
 X2                   1     1. 
 H3                   1    Rah      2    90.0
 O4                   1    Rab      2     90.      3     0.       0
 H5                   4    R1       1    A1       2    D1       0
 H6                   4    R1       1    A1       2    -D1      0
       Variables:
  R1                 0.9628                      
  A1                 115.7890                      
  D1                 117.4949         
  Rah                0.9718    
  Rab                2.2428 

--Link1--
%nproc=28
%mem=50gb
# mp2/aug-cc-pVTZ pop=ChelpG

Title: Rah = 0.9818 Rab = 2.2428 Scans

0 1
 F1
 X2                   1     1. 
 H3                   1    Rah      2    90.0
 O4                   1    Rab      2     90.      3     0.       0
 H5                   4    R1       1    A1       2    D1       0
 H6                   4    R1       1    A1       2    -D1      0
       Variables:
  R1                 0.9628                      
  A1                 115.7890                      
  D1                 117.4949         
  Rah                0.9818    
  Rab                2.2428 

--Link1--
%nproc=28
%mem=50gb
# mp2/aug-cc-pVTZ pop=ChelpG

Title: Rah = 0.9918 Rab = 2.2428 Scans

0 1
 F1
 X2                   1     1. 
 H3                   1    Rah      2    90.0
 O4                   1    Rab      2     90.      3     0.       0
 H5                   4    R1       1    A1       2    D1       0
 H6                   4    R1       1    A1       2    -D1      0
       Variables:
  R1                 0.9628                      
  A1                 115.7890                      
  D1                 117.4949         
  Rah                0.9918    
  Rab                2.2428 

--Link1--
%nproc=28
%mem=50gb
# mp2/aug-cc-pVTZ pop=ChelpG

Title: Rah = 1.0018 Rab = 2.2428 Scans

0 1
 F1
 X2                   1     1. 
 H3                   1    Rah      2    90.0
 O4                   1    Rab      2     90.      3     0.       0
 H5                   4    R1       1    A1       2    D1       0
 H6                   4    R1       1    A1       2    -D1      0
       Variables:
  R1                 0.9628                      
  A1                 115.7890                      
  D1                 117.4949         
  Rah                1.0018    
  Rab                2.2428 

--Link1--
%nproc=28
%mem=50gb
# mp2/aug-cc-pVTZ pop=ChelpG

Title: Rah = 1.0118 Rab = 2.2428 Scans

0 1
 F1
 X2                   1     1. 
 H3                   1    Rah      2    90.0
 O4                   1    Rab      2     90.      3     0.       0
 H5                   4    R1       1    A1       2    D1       0
 H6                   4    R1       1    A1       2    -D1      0
       Variables:
  R1                 0.9628                      
  A1                 115.7890                      
  D1                 117.4949         
  Rah                1.0118    
  Rab                2.2428 

--Link1--
%nproc=28
%mem=50gb
# mp2/aug-cc-pVTZ pop=ChelpG

Title: Rah = 1.0218 Rab = 2.2428 Scans

0 1
 F1
 X2                   1     1. 
 H3                   1    Rah      2    90.0
 O4                   1    Rab      2     90.      3     0.       0
 H5                   4    R1       1    A1       2    D1       0
 H6                   4    R1       1    A1       2    -D1      0
       Variables:
  R1                 0.9628                      
  A1                 115.7890                      
  D1                 117.4949         
  Rah                1.0218    
  Rab                2.2428 

--Link1--
%nproc=28
%mem=50gb
# mp2/aug-cc-pVTZ pop=ChelpG

Title: Rah = 0.8218 Rab = 2.3428 Scans

0 1
 F1
 X2                   1     1. 
 H3                   1    Rah      2    90.0
 O4                   1    Rab      2     90.      3     0.       0
 H5                   4    R1       1    A1       2    D1       0
 H6                   4    R1       1    A1       2    -D1      0
       Variables:
  R1                 0.9628                      
  A1                 115.0105                      
  D1                 118.3885         
  Rah                0.8218    
  Rab                2.3428 

--Link1--
%nproc=28
%mem=50gb
# mp2/aug-cc-pVTZ pop=ChelpG

Title: Rah = 0.8318 Rab = 2.3428 Scans

0 1
 F1
 X2                   1     1. 
 H3                   1    Rah      2    90.0
 O4                   1    Rab      2     90.      3     0.       0
 H5                   4    R1       1    A1       2    D1       0
 H6                   4    R1       1    A1       2    -D1      0
       Variables:
  R1                 0.9628                      
  A1                 115.0105                      
  D1                 118.3885         
  Rah                0.8318    
  Rab                2.3428 

--Link1--
%nproc=28
%mem=50gb
# mp2/aug-cc-pVTZ pop=ChelpG

Title: Rah = 0.8418 Rab = 2.3428 Scans

0 1
 F1
 X2                   1     1. 
 H3                   1    Rah      2    90.0
 O4                   1    Rab      2     90.      3     0.       0
 H5                   4    R1       1    A1       2    D1       0
 H6                   4    R1       1    A1       2    -D1      0
       Variables:
  R1                 0.9628                      
  A1                 115.0105                      
  D1                 118.3885         
  Rah                0.8418    
  Rab                2.3428 

--Link1--
%nproc=28
%mem=50gb
# mp2/aug-cc-pVTZ pop=ChelpG

Title: Rah = 0.8518 Rab = 2.3428 Scans

0 1
 F1
 X2                   1     1. 
 H3                   1    Rah      2    90.0
 O4                   1    Rab      2     90.      3     0.       0
 H5                   4    R1       1    A1       2    D1       0
 H6                   4    R1       1    A1       2    -D1      0
       Variables:
  R1                 0.9628                      
  A1                 115.0105                      
  D1                 118.3885         
  Rah                0.8518    
  Rab                2.3428 

--Link1--
%nproc=28
%mem=50gb
# mp2/aug-cc-pVTZ pop=ChelpG

Title: Rah = 0.8618 Rab = 2.3428 Scans

0 1
 F1
 X2                   1     1. 
 H3                   1    Rah      2    90.0
 O4                   1    Rab      2     90.      3     0.       0
 H5                   4    R1       1    A1       2    D1       0
 H6                   4    R1       1    A1       2    -D1      0
       Variables:
  R1                 0.9628                      
  A1                 115.0105                      
  D1                 118.3885         
  Rah                0.8618    
  Rab                2.3428 

--Link1--
%nproc=28
%mem=50gb
# mp2/aug-cc-pVTZ pop=ChelpG

Title: Rah = 0.8718 Rab = 2.3428 Scans

0 1
 F1
 X2                   1     1. 
 H3                   1    Rah      2    90.0
 O4                   1    Rab      2     90.      3     0.       0
 H5                   4    R1       1    A1       2    D1       0
 H6                   4    R1       1    A1       2    -D1      0
       Variables:
  R1                 0.9628                      
  A1                 115.0105                      
  D1                 118.3885         
  Rah                0.8718    
  Rab                2.3428 

--Link1--
%nproc=28
%mem=50gb
# mp2/aug-cc-pVTZ pop=ChelpG

Title: Rah = 0.8818 Rab = 2.3428 Scans

0 1
 F1
 X2                   1     1. 
 H3                   1    Rah      2    90.0
 O4                   1    Rab      2     90.      3     0.       0
 H5                   4    R1       1    A1       2    D1       0
 H6                   4    R1       1    A1       2    -D1      0
       Variables:
  R1                 0.9628                      
  A1                 115.0105                      
  D1                 118.3885         
  Rah                0.8818    
  Rab                2.3428 

--Link1--
%nproc=28
%mem=50gb
# mp2/aug-cc-pVTZ pop=ChelpG

Title: Rah = 0.8918 Rab = 2.3428 Scans

0 1
 F1
 X2                   1     1. 
 H3                   1    Rah      2    90.0
 O4                   1    Rab      2     90.      3     0.       0