%nproc=40
%mem=50gb
# mp2/aug-cc-pVTZ Pop=ChelpG opt=(z-matrix,MaxCycles=100,CalcAll) freq

Title: Rab = 2.8497 Aahb = -3.0000

0 1
 F1
 X2                   1     1. 
 H3                   1    Rah      2     Aahb 
 F4                   1    Rab      2     90.      3     0.       0
 X5                   4     1.       1     90.      2     90.      0
 H5(Iso=2)                   4    R1       5     90.      1    D1       0
       Variables:
  R1                   0.9248                 
  D1                  118.5767          
  Rah                   0.9278      
           
  Rab                   2.8497     
  Aahb                 87.0000  

--Link1--
%nproc=40
%mem=50gb
# mp2/aug-cc-pVTZ Pop=ChelpG opt=(z-matrix,MaxCycles=100,CalcAll) freq

Title: Rab = 2.9497 Aahb = -3.0000

0 1
 F1
 X2                   1     1. 
 H3                   1    Rah      2     Aahb 
 F4                   1    Rab      2     90.      3     0.       0
 X5                   4     1.       1     90.      2     90.      0
 H5(Iso=2)                   4    R1       5     90.      1    D1       0
       Variables:
  R1                   0.9248                 
  D1                  118.5767          
  Rah                   0.9278      
           
  Rab                   2.9497     
  Aahb                 87.0000  

--Link1--
%nproc=40
%mem=50gb
# mp2/aug-cc-pVTZ Pop=ChelpG opt=(z-matrix,MaxCycles=100,CalcAll) freq

Title: Rab = 3.0497 Aahb = -3.0000

0 1
 F1
 X2                   1     1. 
 H3                   1    Rah      2     Aahb 
 F4                   1    Rab      2     90.      3     0.       0
 X5                   4     1.       1     90.      2     90.      0
 H5(Iso=2)                   4    R1       5     90.      1    D1       0
       Variables:
  R1                   0.9248                 
  D1                  118.5767          
  Rah                   0.9278      
           
  Rab                   3.0497     
  Aahb                 87.0000  

--Link1--
%nproc=40
%mem=50gb
# mp2/aug-cc-pVTZ Pop=ChelpG opt=(z-matrix,MaxCycles=100,CalcAll) freq

Title: Rab = 3.1497 Aahb = -3.0000

0 1
 F1
 X2                   1     1. 
 H3                   1    Rah      2     Aahb 
 F4                   1    Rab      2     90.      3     0.       0
 X5                   4     1.       1     90.      2     90.      0
 H5(Iso=2)                   4    R1       5     90.      1    D1       0
       Variables:
  R1                   0.9248                 
  D1                  118.5767          
  Rah                   0.9278      
           
  Rab                   3.1497     
  Aahb                 87.0000  

--Link1--
%nproc=40
%mem=50gb
# mp2/aug-cc-pVTZ Pop=ChelpG opt=(z-matrix,MaxCycles=100,CalcAll) freq

Title: Rab = 3.2497 Aahb = -3.0000

0 1
 F1
 X2                   1     1. 
 H3                   1    Rah      2     Aahb 
 F4                   1    Rab      2     90.      3     0.       0
 X5                   4     1.       1     90.      2     90.      0
 H5(Iso=2)                   4    R1       5     90.      1    D1       0
       Variables:
  R1                   0.9248                 
  D1                  118.5767          
  Rah                   0.9278      
           
  Rab                   3.2497     
  Aahb                 87.0000  

--Link1--
%nproc=40
%mem=50gb
# mp2/aug-cc-pVTZ Pop=ChelpG opt=(z-matrix,MaxCycles=100,CalcAll) freq

Title: Rab = 3.3497 Aahb = -3.0000

0 1
 F1
 X2                   1     1. 
 H3                   1    Rah      2     Aahb 
 F4                   1    Rab      2     90.      3     0.       0
 X5                   4     1.       1     90.      2     90.      0
 H5(Iso=2)                   4    R1       5     90.      1    D1       0
       Variables:
  R1                   0.9248                 
  D1                  118.5767          
  Rah                   0.9278      
           
  Rab                   3.3497     
  Aahb                 87.0000  

--Link1--
%nproc=40
%mem=50gb
# mp2/aug-cc-pVTZ Pop=ChelpG opt=(z-matrix,MaxCycles=100,CalcAll) freq

Title: Rab = 3.4497 Aahb = -3.0000

0 1
 F1
 X2                   1     1. 
 H3                   1    Rah      2     Aahb 
 F4                   1    Rab      2     90.      3     0.       0
 X5                   4     1.       1     90.      2     90.      0
 H5(Iso=2)                   4    R1       5     90.      1    D1       0
       Variables:
  R1                   0.9248                 
  D1                  118.5767          
  Rah                   0.9278      
           
  Rab                   3.4497     
  Aahb                 87.0000  

--Link1--
%nproc=40
%mem=50gb
# mp2/aug-cc-pVTZ Pop=ChelpG opt=(z-matrix,MaxCycles=100,CalcAll) freq

Title: Rab = 3.5497 Aahb = -3.0000

0 1
 F1
 X2                   1     1. 
 H3                   1    Rah      2     Aahb 
 F4                   1    Rab      2     90.      3     0.       0
 X5                   4     1.       1     90.      2     90.      0
 H5(Iso=2)                   4    R1       5     90.      1    D1       0
       Variables:
  R1                   0.9248                 
  D1                  118.5767          
  Rah                   0.9278      
           
  Rab                   3.5497     
  Aahb                 87.0000  

--Link1--
%nproc=40
%mem=50gb
# mp2/aug-cc-pVTZ Pop=ChelpG opt=(z-matrix,MaxCycles=100,CalcAll) freq

Title: Rab = 3.6497 Aahb = -3.0000

0 1
 F1
 X2                   1     1. 
 H3                   1    Rah      2     Aahb 
 F4                   1    Rab      2     90.      3     0.       0
 X5                   4     1.       1     90.      2     90.      0
 H5(Iso=2)                   4    R1       5     90.      1    D1       0
       Variables:
  R1                   0.9248                 
  D1                  118.5767          
  Rah                   0.9278      
           
  Rab                   3.6497     
  Aahb                 87.0000  

--Link1--
%nproc=40
%mem=50gb
# mp2/aug-cc-pVTZ Pop=ChelpG opt=(z-matrix,MaxCycles=100,CalcAll) freq

Title: Rab = 3.7497 Aahb = -3.0000

0 1
 F1
 X2                   1     1. 
 H3                   1    Rah      2     Aahb 
 F4                   1    Rab      2     90.      3     0.       0
 X5                   4     1.       1     90.      2     90.      0
 H5(Iso=2)                   4    R1       5     90.      1    D1       0
       Variables:
  R1                   0.9248                 
  D1                  118.5767          
  Rah                   0.9278      
           
  Rab                   3.7497     
  Aahb                 87.0000  

--Link1--
%nproc=40
%mem=50gb
# mp2/aug-cc-pVTZ Pop=ChelpG opt=(z-matrix,MaxCycles=100,CalcAll) freq

Title: Rab = 3.9497 Aahb = -3.0000

0 1
 F1
 X2                   1     1. 
 H3                   1    Rah      2     Aahb 
 F4                   1    Rab      2     90.      3     0.       0
 X5                   4     1.       1     90.      2     90.      0
 H5(Iso=2)                   4    R1       5     90.      1    D1       0
       Variables:
  R1                   0.9248                 
  D1                  118.5767          
  Rah                   0.9278      
           
  Rab                   3.9497     
  Aahb                 87.0000  

--Link1--
%nproc=40
%mem=50gb
# mp2/aug-cc-pVTZ Pop=ChelpG opt=(z-matrix,MaxCycles=100,CalcAll) freq

Title: Rab = 4.1497 Aahb = -3.0000

0 1
 F1
 X2                   1     1. 
 H3                   1    Rah      2     Aahb 
 F4                   1    Rab      2     90.      3     0.       0
 X5                   4     1.       1     90.      2     90.      0
 H5(Iso=2)                   4    R1       5     90.      1    D1       0
       Variables:
  R1                   0.9248                 
  D1                  118.5767          
  Rah                   0.9278      
           
  Rab                   4.1497     
  Aahb                 87.0000  

--Link1--
%nproc=40
%mem=50gb
# mp2/aug-cc-pVTZ Pop=ChelpG opt=(z-matrix,MaxCycles=100,CalcAll) freq

Title: Rab = 4.3497 Aahb = -3.0000

0 1
 F1
 X2                   1     1. 
 H3                   1    Rah      2     Aahb 
 F4                   1    Rab      2     90.      3     0.       0
 X5                   4     1.       1     90.      2     90.      0
 H5(Iso=2)                   4    R1       5     90.      1    D1       0
       Variables:
  R1                   0.9248                 
  D1                  118.5767          
  Rah                   0.9278      
           
  Rab                   4.3497     
  Aahb                 87.0000  

--Link1--
%nproc=40
%mem=50gb
# mp2/aug-cc-pVTZ Pop=ChelpG opt=(z-matrix,MaxCycles=100,CalcAll) freq

Title: Rab = 4.5497 Aahb = -3.0000

0 1
 F1
 X2                   1     1. 
 H3                   1    Rah      2     Aahb 
 F4                   1    Rab      2     90.      3     0.       0
 X5                   4     1.       1     90.      2     90.      0
 H5(Iso=2)                   4    R1       5     90.      1    D1       0
       Variables:
  R1                   0.9248                 
  D1                  118.5767          
  Rah                   0.9278      
           
  Rab                   4.5497     
  Aahb                 87.0000  

--Link1--
%nproc=40
%mem=50gb
# mp2/aug-cc-pVTZ Pop=ChelpG opt=(z-matrix,MaxCycles=100,CalcAll) freq

Title: Rab = 4.7497 Aahb = -3.0000

0 1
 F1
 X2                   1     1. 
 H3                   1    Rah      2     Aahb 
 F4                   1    Rab      2     90.      3     0.       0
 X5                   4     1.       1     90.      2     90.      0
 H5(Iso=2)                   4    R1       5     90.      1    D1       0
       Variables:
  R1                   0.9248                 
  D1                  118.5767          
  Rah                   0.9278      
           
  Rab                   4.7497     
  Aahb                 87.0000  

--Link1--
%nproc=40
%mem=50gb
# mp2/aug-cc-pVTZ Pop=ChelpG opt=(z-matrix,MaxCycles=100,CalcAll) freq

Title: Rab = 4.9497 Aahb = -3.0000

0 1
 F1
 X2                   1     1. 
 H3                   1    Rah      2     Aahb 
 F4                   1    Rab      2     90.      3     0.       0
 X5                   4     1.       1     90.      2     90.      0
 H5(Iso=2)                   4    R1       5     90.      1    D1       0
       Variables:
  R1                   0.9248                 
  D1                  118.5767          
  Rah                   0.9278      
           
  Rab                   4.9497     
  Aahb                 87.0000  

--Link1--
%nproc=40
%mem=50gb
# mp2/aug-cc-pVTZ Pop=ChelpG opt=(z-matrix,MaxCycles=100,CalcAll) freq

Title: Rab = 5.1497 Aahb = -3.0000

0 1
 F1
 X2                   1     1. 
 H3                   1    Rah      2     Aahb 
 F4                   1    Rab      2     90.      3     0.       0
 X5                   4     1.       1     90.      2     90.      0
 H5(Iso=2)                   4    R1       5     90.      1    D1       0
       Variables:
  R1                   0.9248                 
  D1                  118.5767          
  Rah                   0.9278      
           
  Rab                   5.1497     
  Aahb                 87.0000  

--Link1--
%nproc=40
%mem=50gb
# mp2/aug-cc-pVTZ Pop=ChelpG opt=(z-matrix,MaxCycles=100,CalcAll) freq

Title: Rab = 5.3497 Aahb = -3.0000

0 1
 F1
 X2                   1     1. 
 H3                   1    Rah      2     Aahb 
 F4                   1    Rab      2     90.      3     0.       0
 X5                   4     1.       1     90.      2     90.      0
 H5(Iso=2)                   4    R1       5     90.      1    D1       0
       Variables:
  R1                   0.9248                 
  D1                  118.5767          
  Rah                   0.9278      
           
  Rab                   5.3497     
  Aahb                 87.0000  

--Link1--
%nproc=40
%mem=50gb
# mp2/aug-cc-pVTZ Pop=ChelpG opt=(z-matrix,MaxCycles=100,CalcAll) freq

Title: Rab = 5.5497 Aahb = -3.0000

0 1
 F1
 X2                   1     1. 
 H3                   1    Rah      2     Aahb 
 F4                   1    Rab      2     90.      3     0.       0
 X5                   4     1.       1     90.      2     90.      0
 H5(Iso=2)                   4    R1       5     90.      1    D1       0
       Variables:
  R1                   0.9248                 
  D1                  118.5767          
  Rah                   0.9278      
           
  Rab                   5.5497     
  Aahb                 87.0000  

--Link1--
%nproc=40
%mem=50gb
# mp2/aug-cc-pVTZ Pop=ChelpG opt=(z-matrix,MaxCycles=100,CalcAll) freq

Title: Rab = 5.7497 Aahb = -3.0000

0 1
 F1
 X2                   1     1. 
 H3                   1    Rah      2     Aahb 
 F4                   1    Rab      2     90.      3     0.       0
 X5                   4     1.       1     90.      2     90.      0
 H5(Iso=2)                   4    R1       5     90.      1    D1       0
       Variables:
  R1                   0.9248                 
  D1                  118.5767          
  Rah                   0.9278      
           
  Rab                   5.7497     
  Aahb                 87.0000  

--Link1--
%nproc=40
%mem=50gb
# mp2/aug-cc-pVTZ Pop=ChelpG opt=(z-matrix,MaxCycles=100,CalcAll) freq

Title: Rab = 2.2497 Aahb = -2.0000

0 1
 F1
 X2                   1     1. 
 H3                   1    Rah      2     Aahb 
 F4                   1    Rab      2     90.      3     0.       0
 X5                   4     1.       1     90.      2     90.      0
 H5(Iso=2)                   4    R1       5     90.      1    D1       0
       Variables:
  R1                   0.9248                 
  D1                  118.5767          
  Rah                   0.9278      
           
  Rab                   2.2497     
  Aahb                 88.0000  

--Link1--
%nproc=40
%mem=50gb
# mp2/aug-cc-pVTZ Pop=ChelpG opt=(z-matrix,MaxCycles=100,CalcAll) freq

Title: Rab = 2.3497 Aahb = -2.0000

0 1
 F1
 X2                   1     1. 
 H3                   1    Rah      2     Aahb 
 F4                   1    Rab      2     90.      3     0.       0
 X5                   4     1.       1     90.      2     90.      0
 H5(Iso=2)                   4    R1       5     90.      1    D1       0
       Variables:
  R1                   0.9248                 
  D1                  118.5767          
  Rah                   0.9278      
           
  Rab                   2.3497     
  Aahb                 88.0000  

--Link1--
%nproc=40
%mem=50gb
# mp2/aug-cc-pVTZ Pop=ChelpG opt=(z-matrix,MaxCycles=100,CalcAll) freq

Title: Rab = 2.4497 Aahb = -2.0000

0 1
 F1
 X2                   1     1. 
 H3                   1    Rah      2     Aahb 
 F4                   1    Rab      2     90.      3     0.       0
 X5                   4     1.       1     90.      2     90.      0
 H5(Iso=2)                   4    R1       5     90.      1    D1       0
       Variables:
  R1                   0.9248                 
  D1                  118.5767          
  Rah                   0.9278      
           
  Rab                   2.4497     
  Aahb                 88.0000  

--Link1--
%nproc=40
%mem=50gb
# mp2/aug-cc-pVTZ Pop=ChelpG opt=(z-matrix,MaxCycles=100,CalcAll) freq

Title: Rab = 2.5497 Aahb = -2.0000

0 1
 F1
 X2                   1     1. 
 H3                   1    Rah      2     Aahb 
 F4                   1    Rab      2     90.      3     0.       0
 X5                   4     1.       1     90.      2     90.      0
 H5(Iso=2)                   4    R1       5     90.      1    D1       0
       Variables:
  R1                   0.9248                 
  D1                  118.5767          
  Rah                   0.9278      
           
  Rab                   2.5497     
  Aahb                 88.0000  

--Link1--
%nproc=40
%mem=50gb
# mp2/aug-cc-pVTZ Pop=ChelpG opt=(z-matrix,MaxCycles=100,CalcAll) freq

Title: Rab = 2.6497 Aahb = -2.0000

0 1
 F1
 X2                   1     1. 
 H3                   1    Rah      2     Aahb 
 F4                   1    Rab      2     90.      3     0.       0
 X5                   4     1.       1     90.      2     90.      0
 H5(Iso=2)                   4    R1       5     90.      1    D1       0
       Variables:
  R1                   0.9248                 
  D1                  118.5767          
  Rah                   0.9278      
           
  Rab                   2.6497     
  Aahb                 88.0000  

--Link1--
%nproc=40
%mem=50gb
# mp2/aug-cc-pVTZ Pop=ChelpG opt=(z-matrix,MaxCycles=100,CalcAll) freq

Title: Rab = 2.7497 Aahb = -2.0000

0 1
 F1
 X2                   1     1. 
 H3                   1    Rah      2     Aahb 
 F4                   1    Rab      2     90.      3     0.       0
 X5                   4     1.       1     90.      2     90.      0
 H5(Iso=2)                   4    R1       5     90.      1    D1       0
       Variables:
  R1                   0.9248                 
  D1                  118.5767          
  Rah                   0.9278      
           
  Rab                   2.7497     
  Aahb                 88.0000  

--Link1--
%nproc=40
%mem=50gb
# mp2/aug-cc-pVTZ Pop=ChelpG opt=(z-matrix,MaxCycles=100,CalcAll) freq

Title: Rab = 2.8497 Aahb = -2.0000

0 1
 F1
 X2                   1     1. 
 H3                   1    Rah      2     Aahb 
 F4                   1    Rab      2     90.      3     0.       0
 X5                   4     1.       1     90.      2     90.      0
 H5(Iso=2)                   4    R1       5     90.      1    D1       0
       Variables:
  R1                   0.9248                 
  D1                  118.5767          
  Rah                   0.9278      
           
  Rab                   2.8497     
  Aahb                 88.0000  

--Link1--
%nproc=40
%mem=50gb
# mp2/aug-cc-pVTZ Pop=ChelpG opt=(z-matrix,MaxCycles=100,CalcAll) freq

Title: Rab = 2.9497 Aahb = -2.0000

0 1
 F1
 X2                   1     1. 
 H3                   1    Rah      2     Aahb 
 F4                   1    Rab      2     90.      3     0.       0
 X5                   4     1.       1     90.      2     90.      0
 H5(Iso=2)                   4    R1       5     90.      1    D1       0
       Variables:
  R1                   0.9248                 
  D1                  118.5767          
  Rah                   0.9278      
           
  Rab                   2.9497     
  Aahb                 88.0000  

--Link1--
%nproc=40
%mem=50gb
# mp2/aug-cc-pVTZ Pop=ChelpG opt=(z-matrix,MaxCycles=100,CalcAll) freq

Title: Rab = 3.0497 Aahb = -2.0000

0 1
 F1
 X2                   1     1. 
 H3                   1    Rah      2     Aahb 
 F4                   1    Rab      2     90.      3     0.       0
 X5                   4     1.       1     90.      2     90.      0
 H5(Iso=2)                   4    R1       5     90.      1    D1       0
       Variables:
  R1                   0.9248                 
  D1                  118.5767          
  Rah                   0.9278      
           
  Rab                   3.0497     
  Aahb                 88.0000  

--Link1--
%nproc=40
%mem=50gb
# mp2/aug-cc-pVTZ Pop=ChelpG opt=(z-matrix,MaxCycles=100,CalcAll) freq

Title: Rab = 3.1497 Aahb = -2.0000

0 1
 F1
 X2                   1     1. 
 H3                   1    Rah      2     Aahb 
 F4                   1    Rab      2     90.      3     0.       0
 X5                   4     1.       1     90.      2     90.      0
 H5(Iso=2)                   4    R1       5     90.      1    D1       0
       Variables:
  R1                   0.9248                 
  D1                  118.5767          
  Rah                   0.9278      
           
  Rab                   3.1497     
  Aahb                 88.0000  

--Link1--
%nproc=40
%mem=50gb
# mp2/aug-cc-pVTZ Pop=ChelpG opt=(z-matrix,MaxCycles=100,CalcAll) freq

Title: Rab = 3.2497 Aahb = -2.0000

0 1
 F1
 X2                   1     1. 
 H3                   1    Rah      2     Aahb 
 F4                   1    Rab      2     90.      3     0.       0
 X5                   4     1.       1     90.      2     90.      0
 H5(Iso=2)                   4    R1       5     90.      1    D1       0
       Variables:
  R1                   0.9248                 
  D1                  118.5767          
  Rah                   0.9278      
           
  Rab                   3.2497     
  Aahb                 88.0000  

--Link1--
%nproc=40
%mem=50gb
# mp2/aug-cc-pVTZ Pop=ChelpG opt=(z-matrix,MaxCycles=100,CalcAll) freq

Title: Rab = 3.3497 Aahb = -2.0000

0 1
 F1
 X2                   1     1. 
 H3                   1    Rah      2     Aahb 
 F4                   1    Rab      2     90.      3     0.       0
 X5                   4     1.       1     90.      2     90.      0
 H5(Iso=2)                   4    R1       5     90.      1    D1       0
       Variables:
  R1                   0.9248                 
  D1                  118.5767          
  Rah                   0.9278      
           
  Rab                   3.3497     
  Aahb                 88.0000  

--Link1--
%nproc=40
%mem=50gb
# mp2/aug-cc-pVTZ Pop=ChelpG opt=(z-matrix,MaxCycles=100,CalcAll) freq

Title: Rab = 3.4497 Aahb = -2.0000

0 1
 F1
 X2                   1     1. 
 H3                   1    Rah      2     Aahb 
 F4                   1    Rab      2     90.      3     0.       0
 X5                   4     1.       1     90.      2     90.      0
 H5(Iso=2)                   4    R1       5     90.      1    D1       0
       Variables:
  R1                   0.9248                 
  D1                  118.5767          
  Rah                   0.9278      
           
  Rab                   3.4497     
  Aahb                 88.0000  

--Link1--
%nproc=40
%mem=50gb
# mp2/aug-cc-pVTZ Pop=ChelpG opt=(z-matrix,MaxCycles=100,CalcAll) freq

Title: Rab = 3.5497 Aahb = -2.0000

0 1
 F1
 X2                   1     1. 
 H3                   1    Rah      2     Aahb 
 F4                   1    Rab      2     90.      3     0.       0
 X5                   4     1.       1     90.      2     90.      0
 H5(Iso=2)                   4    R1       5     90.      1    D1       0
       Variables:
  R1                   0.9248                 
  D1                  118.5767          
  Rah                   0.9278      
           
  Rab                   3.5497     
  Aahb                 88.0000  

--Link1--
%nproc=40
%mem=50gb
# mp2/aug-cc-pVTZ Pop=ChelpG opt=(z-matrix,MaxCycles=100,CalcAll) freq

Title: Rab = 3.6497 Aahb = -2.0000

0 1
 F1
 X2                   1     1. 
 H3                   1    Rah      2     Aahb 
 F4                   1    Rab      2     90.      3     0.       0
 X5                   4     1.       1     90.      2     90.      0
 H5(Iso=2)                   4    R1       5     90.      1    D1       0
       Variables:
  R1                   0.9248                 
  D1                  118.5767          
  Rah                   0.9278      
           
  Rab                   3.6497     
  Aahb                 88.0000  

--Link1--
%nproc=40
%mem=50gb
# mp2/aug-cc-pVTZ Pop=ChelpG opt=(z-matrix,MaxCycles=100,CalcAll) freq

Title: Rab = 3.7497 Aahb = -2.0000

0 1
 F1
 X2                   1     1. 
 H3                   1    Rah      2     Aahb 
 F4                   1    Rab      2     90.      3     0.       0
 X5                   4     1.       1     90.      2     90.      0
 H5(Iso=2)                   4    R1       5     90.      1    D1       0
       Variables:
  R1                   0.9248                 
  D1                  118.5767          
  Rah                   0.9278      
           
  Rab                   3.7497     
  Aahb                 88.0000  

--Link1--
%nproc=40
%mem=50gb
# mp2/aug-cc-pVTZ Pop=ChelpG opt=(z-matrix,MaxCycles=100,CalcAll) freq

Title: Rab = 3.9497 Aahb = -2.0000

0 1
 F1
 X2                   1     1. 
 H3                   1    Rah      2     Aahb 
 F4                   1    Rab      2     90.      3     0.       0
 X5                   4     1.       1     90.      2     90.      0
 H5(Iso=2)                   4    R1       5     90.      1    D1       0
       Variables:
  R1                   0.9248                 
  D1                  118.5767          
  Rah                   0.9278      
           
  Rab                   3.9497     
  Aahb                 88.0000  

--Link1--
%nproc=40
%mem=50gb
# mp2/aug-cc-pVTZ Pop=ChelpG opt=(z-matrix,MaxCycles=100,CalcAll) freq

Title: Rab = 4.1497 Aahb = -2.0000

0 1
 F1
 X2                   1     1. 
 H3                   1    Rah      2     Aahb 
 F4                   1    Rab      2     90.      3     0.       0
 X5                   4     1.       1     90.      2     90.      0
 H5(Iso=2)                   4    R1       5     90.      1    D1       0
       Variables:
  R1                   0.9248                 
  D1                  118.5767          
  Rah                   0.9278      
           
  Rab                   4.1497     
  Aahb                 88.0000  

--Link1--
%nproc=40
%mem=50gb
# mp2/aug-cc-pVTZ Pop=ChelpG opt=(z-matrix,MaxCycles=100,CalcAll) freq

Title: Rab = 4.3497 Aahb = -2.0000

0 1
 F1
 X2                   1     1. 
 H3                   1    Rah      2     Aahb 
 F4                   1    Rab      2     90.      3     0.       0
 X5                   4     1.       1     90.      2     90.      0
 H5(Iso=2)                   4    R1       5     90.      1    D1       0
       Variables:
  R1                   0.9248                 
  D1                  118.5767          
  Rah                   0.9278      
           
  Rab                   4.3497     
  Aahb                 88.0000  

--Link1--
%nproc=40
%mem=50gb
# mp2/aug-cc-pVTZ Pop=ChelpG opt=(z-matrix,MaxCycles=100,CalcAll) freq

Title: Rab = 4.5497 Aahb = -2.0000

0 1
 F1
 X2                   1     1. 
 H3                   1    Rah      2     Aahb 
 F4                   1    Rab      2     90.      3     0.       0
 X5                   4     1.       1     90.      2     90.      0
 H5(Iso=2)                   4    R1       5     90.      1    D1       0
       Variables:
  R1                   0.9248                 
  D1                  118.5767          
  Rah                   0.9278      
           
  Rab                   4.5497     
  Aahb                 88.0000  

--Link1--
%nproc=40
%mem=50gb
# mp2/aug-cc-pVTZ Pop=ChelpG opt=(z-matrix,MaxCycles=100,CalcAll) freq

Title: Rab = 4.7497 Aahb = -2.0000

0 1
 F1
 X2                   1     1. 
 H3                   1    Rah      2     Aahb 
 F4                   1    Rab      2     90.      3     0.       0
 X5                   4     1.       1     90.      2     90.      0
 H5(Iso=2)                   4    R1       5     90.      1    D1       0
       Variables:
  R1                   0.9248                 
  D1                  118.5767          
  Rah                   0.9278      
           
  Rab                   4.7497     
  Aahb                 88.0000  

--Link1--
%nproc=40
%mem=50gb
# mp2/aug-cc-pVTZ Pop=ChelpG opt=(z-matrix,MaxCycles=100,CalcAll) freq

Title: Rab = 4.9497 Aahb = -2.0000

0 1
 F1
 X2                   1     1. 
 H3                   1    Rah      2     Aahb 
 F4                   1    Rab      2     90.      3     0.       0
 X5                   4     1.       1     90.      2     90.      0
 H5(Iso=2)                   4    R1       5     90.      1    D1       0
       Variables:
  R1                   0.9248                 
  D1                  118.5767          
  Rah                   0.9278      
           
  Rab                   4.9497     
  Aahb                 88.0000  

--Link1--
%nproc=40
%mem=50gb
# mp2/aug-cc-pVTZ Pop=ChelpG opt=(z-matrix,MaxCycles=100,CalcAll) freq

Title: Rab = 5.1497 Aahb = -2.0000

0 1
 F1
 X2                   1     1. 
 H3                   1    Rah      2     Aahb 
 F4                   1    Rab      2     90.      3     0.       0
 X5                   4     1.       1     90.      2     90.      0
 H5(Iso=2)                   4    R1       5     90.      1    D1       0
       Variables:
  R1                   0.9248                 
  D1                  118.5767          
  Rah                   0.9278      
           
  Rab                   5.1497     
  Aahb                 88.0000  

--Link1--
%nproc=40
%mem=50gb
# mp2/aug-cc-pVTZ Pop=ChelpG opt=(z-matrix,MaxCycles=100,CalcAll) freq

Title: Rab = 5.3497 Aahb = -2.0000

0 1
 F1
 X2                   1     1. 
 H3                   1    Rah      2     Aahb 
 F4                   1    Rab      2     90.      3     0.       0
 X5                   4     1.       1     90.      2     90.      0
 H5(Iso=2)                   4    R1       5     90.      1    D1       0
       Variables:
  R1                   0.9248                 
  D1                  118.5767          
  Rah                   0.9278      
           
  Rab                   5.3497     
  Aahb                 88.0000  

--Link1--
%nproc=40
%mem=50gb
# mp2/aug-cc-pVTZ Pop=ChelpG opt=(z-matrix,MaxCycles=100,CalcAll) freq

Title: Rab = 5.5497 Aahb = -2.0000

0 1
 F1
 X2                   1     1. 
 H3                   1    Rah      2     Aahb 
 F4                   1    Rab      2     90.      3     0.       0
 X5                   4     1.       1     90.      2     90.      0
 H5(Iso=2)                   4    R1       5     90.      1    D1       0
       Variables:
  R1                   0.9248                 
  D1                  118.5767          
  Rah                   0.9278      
           
  Rab                   5.5497     
  Aahb                 88.0000  

--Link1--
%nproc=40
%mem=50gb
# mp2/aug-cc-pVTZ Pop=ChelpG opt=(z-matrix,MaxCycles=100,CalcAll) freq

Title: Rab = 5.7497 Aahb = -2.0000

0 1
 F1
 X2                   1     1. 