%nproc=40
%mem=50gb
# mp2/aug-cc-pVTZ Pop=ChelpG

Title: Rah = 0.8218 Rab = 2.2497 Scans

0 1
 F1
 X2                   1     1. 
 H3                   1    Rah      2     90. 
 F4                   1    Rab      2     90.      3     0.       0
 X5                   4     1.       1     90.      2     90.      0
 H5                   4    R1       5     90.      1    D1       0
       Variables:
  R1                   0.9276                 
  D1                  116.6369          
  Rah                   0.8218      
  Rab                   2.2497       

--Link1--
%nproc=40
%mem=50gb
# mp2/aug-cc-pVTZ Pop=ChelpG

Title: Rah = 0.8318 Rab = 2.2497 Scans

0 1
 F1
 X2                   1     1. 
 H3                   1    Rah      2     90. 
 F4                   1    Rab      2     90.      3     0.       0
 X5                   4     1.       1     90.      2     90.      0
 H5                   4    R1       5     90.      1    D1       0
       Variables:
  R1                   0.9276                 
  D1                  116.6369          
  Rah                   0.8318      
  Rab                   2.2497       

--Link1--
%nproc=40
%mem=50gb
# mp2/aug-cc-pVTZ Pop=ChelpG

Title: Rah = 0.8418 Rab = 2.2497 Scans

0 1
 F1
 X2                   1     1. 
 H3                   1    Rah      2     90. 
 F4                   1    Rab      2     90.      3     0.       0
 X5                   4     1.       1     90.      2     90.      0
 H5                   4    R1       5     90.      1    D1       0
       Variables:
  R1                   0.9276                 
  D1                  116.6369          
  Rah                   0.8418      
  Rab                   2.2497       

--Link1--
%nproc=40
%mem=50gb
# mp2/aug-cc-pVTZ Pop=ChelpG

Title: Rah = 0.8518 Rab = 2.2497 Scans

0 1
 F1
 X2                   1     1. 
 H3                   1    Rah      2     90. 
 F4                   1    Rab      2     90.      3     0.       0
 X5                   4     1.       1     90.      2     90.      0
 H5                   4    R1       5     90.      1    D1       0
       Variables:
  R1                   0.9276                 
  D1                  116.6369          
  Rah                   0.8518      
  Rab                   2.2497       

--Link1--
%nproc=40
%mem=50gb
# mp2/aug-cc-pVTZ Pop=ChelpG

Title: Rah = 0.8618 Rab = 2.2497 Scans

0 1
 F1
 X2                   1     1. 
 H3                   1    Rah      2     90. 
 F4                   1    Rab      2     90.      3     0.       0
 X5                   4     1.       1     90.      2     90.      0
 H5                   4    R1       5     90.      1    D1       0
       Variables:
  R1                   0.9276                 
  D1                  116.6369          
  Rah                   0.8618      
  Rab                   2.2497       

--Link1--
%nproc=40
%mem=50gb
# mp2/aug-cc-pVTZ Pop=ChelpG

Title: Rah = 0.8718 Rab = 2.2497 Scans

0 1
 F1
 X2                   1     1. 
 H3                   1    Rah      2     90. 
 F4                   1    Rab      2     90.      3     0.       0
 X5                   4     1.       1     90.      2     90.      0
 H5                   4    R1       5     90.      1    D1       0
       Variables:
  R1                   0.9276                 
  D1                  116.6369          
  Rah                   0.8718      
  Rab                   2.2497       

--Link1--
%nproc=40
%mem=50gb
# mp2/aug-cc-pVTZ Pop=ChelpG

Title: Rah = 0.8818 Rab = 2.2497 Scans

0 1
 F1
 X2                   1     1. 
 H3                   1    Rah      2     90. 
 F4                   1    Rab      2     90.      3     0.       0
 X5                   4     1.       1     90.      2     90.      0
 H5                   4    R1       5     90.      1    D1       0
       Variables:
  R1                   0.9276                 
  D1                  116.6369          
  Rah                   0.8818      
  Rab                   2.2497       

--Link1--
%nproc=40
%mem=50gb
# mp2/aug-cc-pVTZ Pop=ChelpG

Title: Rah = 0.8918 Rab = 2.2497 Scans

0 1
 F1
 X2                   1     1. 
 H3                   1    Rah      2     90. 
 F4                   1    Rab      2     90.      3     0.       0
 X5                   4     1.       1     90.      2     90.      0
 H5                   4    R1       5     90.      1    D1       0
       Variables:
  R1                   0.9276                 
  D1                  116.6369          
  Rah                   0.8918      
  Rab                   2.2497       

--Link1--
%nproc=40
%mem=50gb
# mp2/aug-cc-pVTZ Pop=ChelpG

Title: Rah = 0.9018 Rab = 2.2497 Scans

0 1
 F1
 X2                   1     1. 
 H3                   1    Rah      2     90. 
 F4                   1    Rab      2     90.      3     0.       0
 X5                   4     1.       1     90.      2     90.      0
 H5                   4    R1       5     90.      1    D1       0
       Variables:
  R1                   0.9276                 
  D1                  116.6369          
  Rah                   0.9018      
  Rab                   2.2497       

--Link1--
%nproc=40
%mem=50gb
# mp2/aug-cc-pVTZ Pop=ChelpG

Title: Rah = 0.9118 Rab = 2.2497 Scans

0 1
 F1
 X2                   1     1. 
 H3                   1    Rah      2     90. 
 F4                   1    Rab      2     90.      3     0.       0
 X5                   4     1.       1     90.      2     90.      0
 H5                   4    R1       5     90.      1    D1       0
       Variables:
  R1                   0.9276                 
  D1                  116.6369          
  Rah                   0.9118      
  Rab                   2.2497       

--Link1--
%nproc=40
%mem=50gb
# mp2/aug-cc-pVTZ Pop=ChelpG

Title: Rah = 0.9218 Rab = 2.2497 Scans

0 1
 F1
 X2                   1     1. 
 H3                   1    Rah      2     90. 
 F4                   1    Rab      2     90.      3     0.       0
 X5                   4     1.       1     90.      2     90.      0
 H5                   4    R1       5     90.      1    D1       0
       Variables:
  R1                   0.9276                 
  D1                  116.6369          
  Rah                   0.9218      
  Rab                   2.2497       

--Link1--
%nproc=40
%mem=50gb
# mp2/aug-cc-pVTZ Pop=ChelpG

Title: Rah = 0.9318 Rab = 2.2497 Scans

0 1
 F1
 X2                   1     1. 
 H3                   1    Rah      2     90. 
 F4                   1    Rab      2     90.      3     0.       0
 X5                   4     1.       1     90.      2     90.      0
 H5                   4    R1       5     90.      1    D1       0
       Variables:
  R1                   0.9276                 
  D1                  116.6369          
  Rah                   0.9318      
  Rab                   2.2497       

--Link1--
%nproc=40
%mem=50gb
# mp2/aug-cc-pVTZ Pop=ChelpG

Title: Rah = 0.9418 Rab = 2.2497 Scans

0 1
 F1
 X2                   1     1. 
 H3                   1    Rah      2     90. 
 F4                   1    Rab      2     90.      3     0.       0
 X5                   4     1.       1     90.      2     90.      0
 H5                   4    R1       5     90.      1    D1       0
       Variables:
  R1                   0.9276                 
  D1                  116.6369          
  Rah                   0.9418      
  Rab                   2.2497       

--Link1--
%nproc=40
%mem=50gb
# mp2/aug-cc-pVTZ Pop=ChelpG

Title: Rah = 0.9518 Rab = 2.2497 Scans

0 1
 F1
 X2                   1     1. 
 H3                   1    Rah      2     90. 
 F4                   1    Rab      2     90.      3     0.       0
 X5                   4     1.       1     90.      2     90.      0
 H5                   4    R1       5     90.      1    D1       0
       Variables:
  R1                   0.9276                 
  D1                  116.6369          
  Rah                   0.9518      
  Rab                   2.2497       

--Link1--
%nproc=40
%mem=50gb
# mp2/aug-cc-pVTZ Pop=ChelpG

Title: Rah = 0.9618 Rab = 2.2497 Scans

0 1
 F1
 X2                   1     1. 
 H3                   1    Rah      2     90. 
 F4                   1    Rab      2     90.      3     0.       0
 X5                   4     1.       1     90.      2     90.      0
 H5                   4    R1       5     90.      1    D1       0
       Variables:
  R1                   0.9276                 
  D1                  116.6369          
  Rah                   0.9618      
  Rab                   2.2497       

--Link1--
%nproc=40
%mem=50gb
# mp2/aug-cc-pVTZ Pop=ChelpG

Title: Rah = 0.9718 Rab = 2.2497 Scans

0 1
 F1
 X2                   1     1. 
 H3                   1    Rah      2     90. 
 F4                   1    Rab      2     90.      3     0.       0
 X5                   4     1.       1     90.      2     90.      0
 H5                   4    R1       5     90.      1    D1       0
       Variables:
  R1                   0.9276                 
  D1                  116.6369          
  Rah                   0.9718      
  Rab                   2.2497       

--Link1--
%nproc=40
%mem=50gb
# mp2/aug-cc-pVTZ Pop=ChelpG

Title: Rah = 0.9818 Rab = 2.2497 Scans

0 1
 F1
 X2                   1     1. 
 H3                   1    Rah      2     90. 
 F4                   1    Rab      2     90.      3     0.       0
 X5                   4     1.       1     90.      2     90.      0
 H5                   4    R1       5     90.      1    D1       0
       Variables:
  R1                   0.9276                 
  D1                  116.6369          
  Rah                   0.9818      
  Rab                   2.2497       

--Link1--
%nproc=40
%mem=50gb
# mp2/aug-cc-pVTZ Pop=ChelpG

Title: Rah = 0.9918 Rab = 2.2497 Scans

0 1
 F1
 X2                   1     1. 
 H3                   1    Rah      2     90. 
 F4                   1    Rab      2     90.      3     0.       0
 X5                   4     1.       1     90.      2     90.      0
 H5                   4    R1       5     90.      1    D1       0
       Variables:
  R1                   0.9276                 
  D1                  116.6369          
  Rah                   0.9918      
  Rab                   2.2497       

--Link1--
%nproc=40
%mem=50gb
# mp2/aug-cc-pVTZ Pop=ChelpG

Title: Rah = 1.0018 Rab = 2.2497 Scans

0 1
 F1
 X2                   1     1. 
 H3                   1    Rah      2     90. 
 F4                   1    Rab      2     90.      3     0.       0
 X5                   4     1.       1     90.      2     90.      0
 H5                   4    R1       5     90.      1    D1       0
       Variables:
  R1                   0.9276                 
  D1                  116.6369          
  Rah                   1.0018      
  Rab                   2.2497       

--Link1--
%nproc=40
%mem=50gb
# mp2/aug-cc-pVTZ Pop=ChelpG

Title: Rah = 1.0118 Rab = 2.2497 Scans

0 1
 F1
 X2                   1     1. 
 H3                   1    Rah      2     90. 
 F4                   1    Rab      2     90.      3     0.       0
 X5                   4     1.       1     90.      2     90.      0
 H5                   4    R1       5     90.      1    D1       0
       Variables:
  R1                   0.9276                 
  D1                  116.6369          
  Rah                   1.0118      
  Rab                   2.2497       

--Link1--
%nproc=40
%mem=50gb
# mp2/aug-cc-pVTZ Pop=ChelpG

Title: Rah = 1.0218 Rab = 2.2497 Scans

0 1
 F1
 X2                   1     1. 
 H3                   1    Rah      2     90. 
 F4                   1    Rab      2     90.      3     0.       0
 X5                   4     1.       1     90.      2     90.      0
 H5                   4    R1       5     90.      1    D1       0
       Variables:
  R1                   0.9276                 
  D1                  116.6369          
  Rah                   1.0218      
  Rab                   2.2497       

--Link1--
%nproc=40
%mem=50gb
# mp2/aug-cc-pVTZ Pop=ChelpG

Title: Rah = 0.8218 Rab = 2.3497 Scans

0 1
 F1
 X2                   1     1. 
 H3                   1    Rah      2     90. 
 F4                   1    Rab      2     90.      3     0.       0
 X5                   4     1.       1     90.      2     90.      0
 H5                   4    R1       5     90.      1    D1       0
       Variables:
  R1                   0.9270                 
  D1                  116.5646          
  Rah                   0.8218      
  Rab                   2.3497       

--Link1--
%nproc=40
%mem=50gb
# mp2/aug-cc-pVTZ Pop=ChelpG

Title: Rah = 0.8318 Rab = 2.3497 Scans

0 1
 F1
 X2                   1     1. 
 H3                   1    Rah      2     90. 
 F4                   1    Rab      2     90.      3     0.       0
 X5                   4     1.       1     90.      2     90.      0
 H5                   4    R1       5     90.      1    D1       0
       Variables:
  R1                   0.9270                 
  D1                  116.5646          
  Rah                   0.8318      
  Rab                   2.3497       

--Link1--
%nproc=40
%mem=50gb
# mp2/aug-cc-pVTZ Pop=ChelpG

Title: Rah = 0.8418 Rab = 2.3497 Scans

0 1
 F1
 X2                   1     1. 
 H3                   1    Rah      2     90. 
 F4                   1    Rab      2     90.      3     0.       0
 X5                   4     1.       1     90.      2     90.      0
 H5                   4    R1       5     90.      1    D1       0
       Variables:
  R1                   0.9270                 
  D1                  116.5646          
  Rah                   0.8418      
  Rab                   2.3497       

--Link1--
%nproc=40
%mem=50gb
# mp2/aug-cc-pVTZ Pop=ChelpG

Title: Rah = 0.8518 Rab = 2.3497 Scans

0 1
 F1
 X2                   1     1. 
 H3                   1    Rah      2     90. 
 F4                   1    Rab      2     90.      3     0.       0
 X5                   4     1.       1     90.      2     90.      0
 H5                   4    R1       5     90.      1    D1       0
       Variables:
  R1                   0.9270                 
  D1                  116.5646          
  Rah                   0.8518      
  Rab                   2.3497       

--Link1--
%nproc=40
%mem=50gb
# mp2/aug-cc-pVTZ Pop=ChelpG

Title: Rah = 0.8618 Rab = 2.3497 Scans

0 1
 F1
 X2                   1     1. 
 H3                   1    Rah      2     90. 
 F4                   1    Rab      2     90.      3     0.       0
 X5                   4     1.       1     90.      2     90.      0
 H5                   4    R1       5     90.      1    D1       0
       Variables:
  R1                   0.9270                 
  D1                  116.5646          
  Rah                   0.8618      
  Rab                   2.3497       

--Link1--
%nproc=40
%mem=50gb
# mp2/aug-cc-pVTZ Pop=ChelpG

Title: Rah = 0.8718 Rab = 2.3497 Scans

0 1
 F1
 X2                   1     1. 
 H3                   1    Rah      2     90. 
 F4                   1    Rab      2     90.      3     0.       0
 X5                   4     1.       1     90.      2     90.      0
 H5                   4    R1       5     90.      1    D1       0
       Variables:
  R1                   0.9270                 
  D1                  116.5646          
  Rah                   0.8718      
  Rab                   2.3497       

--Link1--
%nproc=40
%mem=50gb
# mp2/aug-cc-pVTZ Pop=ChelpG

Title: Rah = 0.8818 Rab = 2.3497 Scans

0 1
 F1
 X2                   1     1. 
 H3                   1    Rah      2     90. 
 F4                   1    Rab      2     90.      3     0.       0
 X5                   4     1.       1     90.      2     90.      0
 H5                   4    R1       5     90.      1    D1       0
       Variables:
  R1                   0.9270                 
  D1                  116.5646          
  Rah                   0.8818      
  Rab                   2.3497       

--Link1--
%nproc=40
%mem=50gb
# mp2/aug-cc-pVTZ Pop=ChelpG

Title: Rah = 0.8918 Rab = 2.3497 Scans

0 1
 F1
 X2                   1     1. 
 H3                   1    Rah      2     90. 
 F4                   1    Rab      2     90.      3     0.       0
 X5                   4     1.       1     90.      2     90.      0
 H5                   4    R1       5     90.      1    D1       0
       Variables:
  R1                   0.9270                 
  D1                  116.5646          
  Rah                   0.8918      
  Rab                   2.3497       

--Link1--
%nproc=40
%mem=50gb
# mp2/aug-cc-pVTZ Pop=ChelpG

Title: Rah = 0.9018 Rab = 2.3497 Scans

0 1
 F1
 X2                   1     1. 
 H3                   1    Rah      2     90. 
 F4                   1    Rab      2     90.      3     0.       0
 X5                   4     1.       1     90.      2     90.      0
 H5                   4    R1       5     90.      1    D1       0
       Variables:
  R1                   0.9270                 
  D1                  116.5646          
  Rah                   0.9018      
  Rab                   2.3497       

--Link1--
%nproc=40
%mem=50gb
# mp2/aug-cc-pVTZ Pop=ChelpG

Title: Rah = 0.9118 Rab = 2.3497 Scans

0 1
 F1
 X2                   1     1. 
 H3                   1    Rah      2     90. 
 F4                   1    Rab      2     90.      3     0.       0
 X5                   4     1.       1     90.      2     90.      0
 H5                   4    R1       5     90.      1    D1       0
       Variables:
  R1                   0.9270                 
  D1                  116.5646          
  Rah                   0.9118      
  Rab                   2.3497       

--Link1--
%nproc=40
%mem=50gb
# mp2/aug-cc-pVTZ Pop=ChelpG

Title: Rah = 0.9218 Rab = 2.3497 Scans

0 1
 F1
 X2                   1     1. 
 H3                   1    Rah      2     90. 
 F4                   1    Rab      2     90.      3     0.       0
 X5                   4     1.       1     90.      2     90.      0
 H5                   4    R1       5     90.      1    D1       0
       Variables:
  R1                   0.9270                 
  D1                  116.5646          
  Rah                   0.9218      
  Rab                   2.3497       

--Link1--
%nproc=40
%mem=50gb
# mp2/aug-cc-pVTZ Pop=ChelpG

Title: Rah = 0.9318 Rab = 2.3497 Scans

0 1
 F1
 X2                   1     1. 
 H3                   1    Rah      2     90. 
 F4                   1    Rab      2     90.      3     0.       0
 X5                   4     1.       1     90.      2     90.      0
 H5                   4    R1       5     90.      1    D1       0
       Variables:
  R1                   0.9270                 
  D1                  116.5646          
  Rah                   0.9318      
  Rab                   2.3497       

--Link1--
%nproc=40
%mem=50gb
# mp2/aug-cc-pVTZ Pop=ChelpG

Title: Rah = 0.9418 Rab = 2.3497 Scans

0 1
 F1
 X2                   1     1. 
 H3                   1    Rah      2     90. 
 F4                   1    Rab      2     90.      3     0.       0
 X5                   4     1.       1     90.      2     90.      0
 H5                   4    R1       5     90.      1    D1       0
       Variables:
  R1                   0.9270                 
  D1                  116.5646          
  Rah                   0.9418      
  Rab                   2.3497       

--Link1--
%nproc=40
%mem=50gb
# mp2/aug-cc-pVTZ Pop=ChelpG

Title: Rah = 0.9518 Rab = 2.3497 Scans

0 1
 F1
 X2                   1     1. 
 H3                   1    Rah      2     90. 
 F4                   1    Rab      2     90.      3     0.       0
 X5                   4     1.       1     90.      2     90.      0
 H5                   4    R1       5     90.      1    D1       0
       Variables:
  R1                   0.9270                 
  D1                  116.5646          
  Rah                   0.9518      
  Rab                   2.3497       

--Link1--
%nproc=40
%mem=50gb
# mp2/aug-cc-pVTZ Pop=ChelpG

Title: Rah = 0.9618 Rab = 2.3497 Scans

0 1
 F1
 X2                   1     1. 
 H3                   1    Rah      2     90. 
 F4                   1    Rab      2     90.      3     0.       0
 X5                   4     1.       1     90.      2     90.      0
 H5                   4    R1       5     90.      1    D1       0
       Variables:
  R1                   0.9270                 
  D1                  116.5646          
  Rah                   0.9618      
  Rab                   2.3497       

--Link1--
%nproc=40
%mem=50gb
# mp2/aug-cc-pVTZ Pop=ChelpG

Title: Rah = 0.9718 Rab = 2.3497 Scans

0 1
 F1
 X2                   1     1. 
 H3                   1    Rah      2     90. 
 F4                   1    Rab      2     90.      3     0.       0
 X5                   4     1.       1     90.      2     90.      0
 H5                   4    R1       5     90.      1    D1       0
       Variables:
  R1                   0.9270                 
  D1                  116.5646          
  Rah                   0.9718      
  Rab                   2.3497       

--Link1--
%nproc=40
%mem=50gb
# mp2/aug-cc-pVTZ Pop=ChelpG

Title: Rah = 0.9818 Rab = 2.3497 Scans

0 1
 F1
 X2                   1     1. 
 H3                   1    Rah      2     90. 
 F4                   1    Rab      2     90.      3     0.       0
 X5                   4     1.       1     90.      2     90.      0
 H5                   4    R1       5     90.      1    D1       0
       Variables:
  R1                   0.9270                 
  D1                  116.5646          
  Rah                   0.9818      
  Rab                   2.3497       

--Link1--
%nproc=40
%mem=50gb
# mp2/aug-cc-pVTZ Pop=ChelpG

Title: Rah = 0.9918 Rab = 2.3497 Scans

0 1
 F1
 X2                   1     1. 
 H3                   1    Rah      2     90. 
 F4                   1    Rab      2     90.      3     0.       0
 X5                   4     1.       1     90.      2     90.      0
 H5                   4    R1       5     90.      1    D1       0
       Variables:
  R1                   0.9270                 
  D1                  116.5646          
  Rah                   0.9918      
  Rab                   2.3497       

--Link1--
%nproc=40
%mem=50gb
# mp2/aug-cc-pVTZ Pop=ChelpG

Title: Rah = 1.0018 Rab = 2.3497 Scans

0 1
 F1
 X2                   1     1. 
 H3                   1    Rah      2     90. 
 F4                   1    Rab      2     90.      3     0.       0
 X5                   4     1.       1     90.      2     90.      0
 H5                   4    R1       5     90.      1    D1       0
       Variables:
  R1                   0.9270                 
  D1                  116.5646          
  Rah                   1.0018      
  Rab                   2.3497       

--Link1--
%nproc=40
%mem=50gb
# mp2/aug-cc-pVTZ Pop=ChelpG

Title: Rah = 1.0118 Rab = 2.3497 Scans

0 1
 F1
 X2                   1     1. 
 H3                   1    Rah      2     90. 
 F4                   1    Rab      2     90.      3     0.       0
 X5                   4     1.       1     90.      2     90.      0
 H5                   4    R1       5     90.      1    D1       0
       Variables:
  R1                   0.9270                 
  D1                  116.5646          
  Rah                   1.0118      
  Rab                   2.3497       

--Link1--
%nproc=40
%mem=50gb
# mp2/aug-cc-pVTZ Pop=ChelpG

Title: Rah = 1.0218 Rab = 2.3497 Scans

0 1
 F1
 X2                   1     1. 
 H3                   1    Rah      2     90. 
 F4                   1    Rab      2     90.      3     0.       0
 X5                   4     1.       1     90.      2     90.      0
 H5                   4    R1       5     90.      1    D1       0
       Variables:
  R1                   0.9270                 
  D1                  116.5646          
  Rah                   1.0218      
  Rab                   2.3497       

--Link1--
%nproc=40
%mem=50gb
# mp2/aug-cc-pVTZ Pop=ChelpG

Title: Rah = 0.8218 Rab = 2.4497 Scans

0 1
 F1
 X2                   1     1. 
 H3                   1    Rah      2     90. 
 F4                   1    Rab      2     90.      3     0.       0
 X5                   4     1.       1     90.      2     90.      0
 H5                   4    R1       5     90.      1    D1       0
       Variables:
  R1                   0.9263                 
  D1                  116.7630          
  Rah                   0.8218      
  Rab                   2.4497       

--Link1--
%nproc=40
%mem=50gb
# mp2/aug-cc-pVTZ Pop=ChelpG

Title: Rah = 0.8318 Rab = 2.4497 Scans

0 1
 F1
 X2                   1     1. 
 H3                   1    Rah      2     90. 
 F4                   1    Rab      2     90.      3     0.       0
 X5                   4     1.       1     90.      2     90.      0
 H5                   4    R1       5     90.      1    D1       0
       Variables:
  R1                   0.9263                 
  D1                  116.7630          
  Rah                   0.8318      
  Rab                   2.4497       

--Link1--
%nproc=40
%mem=50gb
# mp2/aug-cc-pVTZ Pop=ChelpG

Title: Rah = 0.8418 Rab = 2.4497 Scans

0 1
 F1
 X2                   1     1. 
 H3                   1    Rah      2     90. 
 F4                   1    Rab      2     90.      3     0.       0
 X5                   4     1.       1     90.      2     90.      0
 H5                   4    R1       5     90.      1    D1       0
       Variables:
  R1                   0.9263                 
  D1                  116.7630          
  Rah                   0.8418      
  Rab                   2.4497       

--Link1--
%nproc=40
%mem=50gb
# mp2/aug-cc-pVTZ Pop=ChelpG

Title: Rah = 0.8518 Rab = 2.4497 Scans

0 1
 F1
 X2                   1     1. 
 H3                   1    Rah      2     90. 
 F4                   1    Rab      2     90.      3     0.       0
 X5                   4     1.       1     90.      2     90.      0
 H5                   4    R1       5     90.      1    D1       0
       Variables:
  R1                   0.9263                 
  D1                  116.7630          
  Rah                   0.8518      
  Rab                   2.4497       

--Link1--
%nproc=40
%mem=50gb
# mp2/aug-cc-pVTZ Pop=ChelpG

Title: Rah = 0.8618 Rab = 2.4497 Scans

0 1
 F1
 X2                   1     1. 
 H3                   1    Rah      2     90. 
 F4                   1    Rab      2     90.      3     0.       0
 X5                   4     1.       1     90.      2     90.      0
 H5                   4    R1       5     90.      1    D1       0
       Variables:
  R1                   0.9263                 
  D1                  116.7630          
  Rah                   0.8618      
  Rab                   2.4497       

--Link1--
%nproc=40
%mem=50gb
# mp2/aug-cc-pVTZ Pop=ChelpG

Title: Rah = 0.8718 Rab = 2.4497 Scans

0 1
 F1
 X2                   1     1. 
 H3                   1    Rah      2     90. 
 F4                   1    Rab      2     90.      3     0.       0
 X5                   4     1.       1     90.      2     90.      0
 H5                   4    R1       5     90.      1    D1       0
       Variables:
  R1                   0.9263                 
  D1                  116.7630          
  Rah                   0.8718      
  Rab                   2.4497       

--Link1--
%nproc=40
%mem=50gb
# mp2/aug-cc-pVTZ Pop=ChelpG

Title: Rah = 0.8818 Rab = 2.4497 Scans

0 1
 F1
 X2                   1     1. 
 H3                   1    Rah      2     90. 
 F4                   1    Rab      2     90.      3     0.       0
 X5                   4     1.       1     90.      2     90.      0
 H5                   4    R1       5     90.      1    D1       0
       Variables:
  R1                   0.9263                 
  D1                  116.7630          
  Rah                   0.8818      
  Rab                   2.4497       

--Link1--
%nproc=40
%mem=50gb
# mp2/aug-cc-pVTZ Pop=ChelpG

Title: Rah = 0.8918 Rab = 2.4497 Scans

0 1
 F1
 X2                   1     1. 
 H3                   1    Rah      2     90. 
 F4                   1    Rab      2     90.      3     0.       0
 X5                   4     1.       1     90.      2     90.      0
 H5                   4    R1       5     90.      1    D1       0
       Variables:
  R1                   0.9263                 
  D1                  116.7630          
  Rah                   0.8918      
  Rab                   2.4497       

--Link1--
%nproc=40
%mem=50gb
# mp2/aug-cc-pVTZ Pop=ChelpG

Title: Rah = 0.9018 Rab = 2.4497 Scans

0 1
 F1
 X2                   1     1. 
 H3                   1    Rah      2     90. 
 F4                   1    Rab      2     90.      3     0.       0
 X5                   4     1.       1     90.      2     90.      0
 H5                   4    R1       5     90.      1    D1       0
       Variables:
  R1                   0.9263                 
  D1                  116.7630          
  Rah                   0.9018      
  Rab                   2.4497       

--Link1--
%nproc=40
%mem=50gb
# mp2/aug-cc-pVTZ Pop=ChelpG

Title: Rah = 0.9118 Rab = 2.4497 Scans

0 1
 F1
 X2                   1     1. 
 H3                   1    Rah      2     90. 
 F4                   1    Rab      2     90.      3     0.       0
 X5                   4     1.       1     90.      2     90.      0
 H5                   4    R1       5     90.      1    D1       0
       Variables:
  R1                   0.9263                 
  D1                  116.7630          
  Rah                   0.9118      
  Rab                   2.4497       

--Link1--
%nproc=40
%mem=50gb
# mp2/aug-cc-pVTZ Pop=ChelpG

Title: Rah = 0.9218 Rab = 2.4497 Scans

0 1
 F1
 X2                   1     1. 
 H3                   1    Rah      2     90. 