%nproc=40
%mem=50gb
# mp2/aug-cc-pVTZ Pop=ChelpG

Title: Rah = 0.8613 Rab = 2.4164 Scans

0 1
 O
 X                    1     1. 
 H                    1    Roh      2    90.
 O                    1    Roo      2     90.      3     0.       0
 H                    1    R1       3    A1       2     0.       0
 H                    4    R2       1    A2       5    D1       0
 H                    4    R2       1    A2       5    -D1      0
       Variables:                     
  R1                  0.9589                       
  A1                  106.3341                       
  R2                  0.9627                     
  A2                 118.4414        
  D1                  115.3012  
  Roh                0.8613 
  Roo               2.4164     

--Link1--
%nproc=40
%mem=50gb
# mp2/aug-cc-pVTZ Pop=ChelpG

Title: Rah = 0.8713 Rab = 2.4164 Scans

0 1
 O
 X                    1     1. 
 H                    1    Roh      2    90.
 O                    1    Roo      2     90.      3     0.       0
 H                    1    R1       3    A1       2     0.       0
 H                    4    R2       1    A2       5    D1       0
 H                    4    R2       1    A2       5    -D1      0
       Variables:                     
  R1                  0.9589                       
  A1                  106.3341                       
  R2                  0.9627                     
  A2                 118.4414        
  D1                  115.3012  
  Roh                0.8713 
  Roo               2.4164     

--Link1--
%nproc=40
%mem=50gb
# mp2/aug-cc-pVTZ Pop=ChelpG

Title: Rah = 0.8813 Rab = 2.4164 Scans

0 1
 O
 X                    1     1. 
 H                    1    Roh      2    90.
 O                    1    Roo      2     90.      3     0.       0
 H                    1    R1       3    A1       2     0.       0
 H                    4    R2       1    A2       5    D1       0
 H                    4    R2       1    A2       5    -D1      0
       Variables:                     
  R1                  0.9589                       
  A1                  106.3341                       
  R2                  0.9627                     
  A2                 118.4414        
  D1                  115.3012  
  Roh                0.8813 
  Roo               2.4164     

--Link1--
%nproc=40
%mem=50gb
# mp2/aug-cc-pVTZ Pop=ChelpG

Title: Rah = 0.8913 Rab = 2.4164 Scans

0 1
 O
 X                    1     1. 
 H                    1    Roh      2    90.
 O                    1    Roo      2     90.      3     0.       0
 H                    1    R1       3    A1       2     0.       0
 H                    4    R2       1    A2       5    D1       0
 H                    4    R2       1    A2       5    -D1      0
       Variables:                     
  R1                  0.9589                       
  A1                  106.3341                       
  R2                  0.9627                     
  A2                 118.4414        
  D1                  115.3012  
  Roh                0.8913 
  Roo               2.4164     

--Link1--
%nproc=40
%mem=50gb
# mp2/aug-cc-pVTZ Pop=ChelpG

Title: Rah = 0.9013 Rab = 2.4164 Scans

0 1
 O
 X                    1     1. 
 H                    1    Roh      2    90.
 O                    1    Roo      2     90.      3     0.       0
 H                    1    R1       3    A1       2     0.       0
 H                    4    R2       1    A2       5    D1       0
 H                    4    R2       1    A2       5    -D1      0
       Variables:                     
  R1                  0.9589                       
  A1                  106.3341                       
  R2                  0.9627                     
  A2                 118.4414        
  D1                  115.3012  
  Roh                0.9013 
  Roo               2.4164     

--Link1--
%nproc=40
%mem=50gb
# mp2/aug-cc-pVTZ Pop=ChelpG

Title: Rah = 0.9113 Rab = 2.4164 Scans

0 1
 O
 X                    1     1. 
 H                    1    Roh      2    90.
 O                    1    Roo      2     90.      3     0.       0
 H                    1    R1       3    A1       2     0.       0
 H                    4    R2       1    A2       5    D1       0
 H                    4    R2       1    A2       5    -D1      0
       Variables:                     
  R1                  0.9589                       
  A1                  106.3341                       
  R2                  0.9627                     
  A2                 118.4414        
  D1                  115.3012  
  Roh                0.9113 
  Roo               2.4164     

--Link1--
%nproc=40
%mem=50gb
# mp2/aug-cc-pVTZ Pop=ChelpG

Title: Rah = 0.9213 Rab = 2.4164 Scans

0 1
 O
 X                    1     1. 
 H                    1    Roh      2    90.
 O                    1    Roo      2     90.      3     0.       0
 H                    1    R1       3    A1       2     0.       0
 H                    4    R2       1    A2       5    D1       0
 H                    4    R2       1    A2       5    -D1      0
       Variables:                     
  R1                  0.9589                       
  A1                  106.3341                       
  R2                  0.9627                     
  A2                 118.4414        
  D1                  115.3012  
  Roh                0.9213 
  Roo               2.4164     

--Link1--
%nproc=40
%mem=50gb
# mp2/aug-cc-pVTZ Pop=ChelpG

Title: Rah = 0.9313 Rab = 2.4164 Scans

0 1
 O
 X                    1     1. 
 H                    1    Roh      2    90.
 O                    1    Roo      2     90.      3     0.       0
 H                    1    R1       3    A1       2     0.       0
 H                    4    R2       1    A2       5    D1       0
 H                    4    R2       1    A2       5    -D1      0
       Variables:                     
  R1                  0.9589                       
  A1                  106.3341                       
  R2                  0.9627                     
  A2                 118.4414        
  D1                  115.3012  
  Roh                0.9313 
  Roo               2.4164     

--Link1--
%nproc=40
%mem=50gb
# mp2/aug-cc-pVTZ Pop=ChelpG

Title: Rah = 0.9413 Rab = 2.4164 Scans

0 1
 O
 X                    1     1. 
 H                    1    Roh      2    90.
 O                    1    Roo      2     90.      3     0.       0
 H                    1    R1       3    A1       2     0.       0
 H                    4    R2       1    A2       5    D1       0
 H                    4    R2       1    A2       5    -D1      0
       Variables:                     
  R1                  0.9589                       
  A1                  106.3341                       
  R2                  0.9627                     
  A2                 118.4414        
  D1                  115.3012  
  Roh                0.9413 
  Roo               2.4164     

--Link1--
%nproc=40
%mem=50gb
# mp2/aug-cc-pVTZ Pop=ChelpG

Title: Rah = 0.9513 Rab = 2.4164 Scans

0 1
 O
 X                    1     1. 
 H                    1    Roh      2    90.
 O                    1    Roo      2     90.      3     0.       0
 H                    1    R1       3    A1       2     0.       0
 H                    4    R2       1    A2       5    D1       0
 H                    4    R2       1    A2       5    -D1      0
       Variables:                     
  R1                  0.9589                       
  A1                  106.3341                       
  R2                  0.9627                     
  A2                 118.4414        
  D1                  115.3012  
  Roh                0.9513 
  Roo               2.4164     

--Link1--
%nproc=40
%mem=50gb
# mp2/aug-cc-pVTZ Pop=ChelpG

Title: Rah = 0.9613 Rab = 2.4164 Scans

0 1
 O
 X                    1     1. 
 H                    1    Roh      2    90.
 O                    1    Roo      2     90.      3     0.       0
 H                    1    R1       3    A1       2     0.       0
 H                    4    R2       1    A2       5    D1       0
 H                    4    R2       1    A2       5    -D1      0
       Variables:                     
  R1                  0.9589                       
  A1                  106.3341                       
  R2                  0.9627                     
  A2                 118.4414        
  D1                  115.3012  
  Roh                0.9613 
  Roo               2.4164     

--Link1--
%nproc=40
%mem=50gb
# mp2/aug-cc-pVTZ Pop=ChelpG

Title: Rah = 0.9713 Rab = 2.4164 Scans

0 1
 O
 X                    1     1. 
 H                    1    Roh      2    90.
 O                    1    Roo      2     90.      3     0.       0
 H                    1    R1       3    A1       2     0.       0
 H                    4    R2       1    A2       5    D1       0
 H                    4    R2       1    A2       5    -D1      0
       Variables:                     
  R1                  0.9589                       
  A1                  106.3341                       
  R2                  0.9627                     
  A2                 118.4414        
  D1                  115.3012  
  Roh                0.9713 
  Roo               2.4164     

--Link1--
%nproc=40
%mem=50gb
# mp2/aug-cc-pVTZ Pop=ChelpG

Title: Rah = 0.9813 Rab = 2.4164 Scans

0 1
 O
 X                    1     1. 
 H                    1    Roh      2    90.
 O                    1    Roo      2     90.      3     0.       0
 H                    1    R1       3    A1       2     0.       0
 H                    4    R2       1    A2       5    D1       0
 H                    4    R2       1    A2       5    -D1      0
       Variables:                     
  R1                  0.9589                       
  A1                  106.3341                       
  R2                  0.9627                     
  A2                 118.4414        
  D1                  115.3012  
  Roh                0.9813 
  Roo               2.4164     

--Link1--
%nproc=40
%mem=50gb
# mp2/aug-cc-pVTZ Pop=ChelpG

Title: Rah = 0.9913 Rab = 2.4164 Scans

0 1
 O
 X                    1     1. 
 H                    1    Roh      2    90.
 O                    1    Roo      2     90.      3     0.       0
 H                    1    R1       3    A1       2     0.       0
 H                    4    R2       1    A2       5    D1       0
 H                    4    R2       1    A2       5    -D1      0
       Variables:                     
  R1                  0.9589                       
  A1                  106.3341                       
  R2                  0.9627                     
  A2                 118.4414        
  D1                  115.3012  
  Roh                0.9913 
  Roo               2.4164     

--Link1--
%nproc=40
%mem=50gb
# mp2/aug-cc-pVTZ Pop=ChelpG

Title: Rah = 1.0013 Rab = 2.4164 Scans

0 1
 O
 X                    1     1. 
 H                    1    Roh      2    90.
 O                    1    Roo      2     90.      3     0.       0
 H                    1    R1       3    A1       2     0.       0
 H                    4    R2       1    A2       5    D1       0
 H                    4    R2       1    A2       5    -D1      0
       Variables:                     
  R1                  0.9589                       
  A1                  106.3341                       
  R2                  0.9627                     
  A2                 118.4414        
  D1                  115.3012  
  Roh                1.0013 
  Roo               2.4164     

--Link1--
%nproc=40
%mem=50gb
# mp2/aug-cc-pVTZ Pop=ChelpG

Title: Rah = 1.0113 Rab = 2.4164 Scans

0 1
 O
 X                    1     1. 
 H                    1    Roh      2    90.
 O                    1    Roo      2     90.      3     0.       0
 H                    1    R1       3    A1       2     0.       0
 H                    4    R2       1    A2       5    D1       0
 H                    4    R2       1    A2       5    -D1      0
       Variables:                     
  R1                  0.9589                       
  A1                  106.3341                       
  R2                  0.9627                     
  A2                 118.4414        
  D1                  115.3012  
  Roh                1.0113 
  Roo               2.4164     

--Link1--
%nproc=40
%mem=50gb
# mp2/aug-cc-pVTZ Pop=ChelpG

Title: Rah = 1.0213 Rab = 2.4164 Scans

0 1
 O
 X                    1     1. 
 H                    1    Roh      2    90.
 O                    1    Roo      2     90.      3     0.       0
 H                    1    R1       3    A1       2     0.       0
 H                    4    R2       1    A2       5    D1       0
 H                    4    R2       1    A2       5    -D1      0
       Variables:                     
  R1                  0.9589                       
  A1                  106.3341                       
  R2                  0.9627                     
  A2                 118.4414        
  D1                  115.3012  
  Roh                1.0213 
  Roo               2.4164     

--Link1--
%nproc=40
%mem=50gb
# mp2/aug-cc-pVTZ Pop=ChelpG

Title: Rah = 1.0313 Rab = 2.4164 Scans

0 1
 O
 X                    1     1. 
 H                    1    Roh      2    90.
 O                    1    Roo      2     90.      3     0.       0
 H                    1    R1       3    A1       2     0.       0
 H                    4    R2       1    A2       5    D1       0
 H                    4    R2       1    A2       5    -D1      0
       Variables:                     
  R1                  0.9589                       
  A1                  106.3341                       
  R2                  0.9627                     
  A2                 118.4414        
  D1                  115.3012  
  Roh                1.0313 
  Roo               2.4164     

--Link1--
%nproc=40
%mem=50gb
# mp2/aug-cc-pVTZ Pop=ChelpG

Title: Rah = 1.0413 Rab = 2.4164 Scans

0 1
 O
 X                    1     1. 
 H                    1    Roh      2    90.
 O                    1    Roo      2     90.      3     0.       0
 H                    1    R1       3    A1       2     0.       0
 H                    4    R2       1    A2       5    D1       0
 H                    4    R2       1    A2       5    -D1      0
       Variables:                     
  R1                  0.9589                       
  A1                  106.3341                       
  R2                  0.9627                     
  A2                 118.4414        
  D1                  115.3012  
  Roh                1.0413 
  Roo               2.4164     

--Link1--
%nproc=40
%mem=50gb
# mp2/aug-cc-pVTZ Pop=ChelpG

Title: Rah = 1.0513 Rab = 2.4164 Scans

0 1
 O
 X                    1     1. 
 H                    1    Roh      2    90.
 O                    1    Roo      2     90.      3     0.       0
 H                    1    R1       3    A1       2     0.       0
 H                    4    R2       1    A2       5    D1       0
 H                    4    R2       1    A2       5    -D1      0
       Variables:                     
  R1                  0.9589                       
  A1                  106.3341                       
  R2                  0.9627                     
  A2                 118.4414        
  D1                  115.3012  
  Roh                1.0513 
  Roo               2.4164     

--Link1--
%nproc=40
%mem=50gb
# mp2/aug-cc-pVTZ Pop=ChelpG

Title: Rah = 1.0613 Rab = 2.4164 Scans

0 1
 O
 X                    1     1. 
 H                    1    Roh      2    90.
 O                    1    Roo      2     90.      3     0.       0
 H                    1    R1       3    A1       2     0.       0
 H                    4    R2       1    A2       5    D1       0
 H                    4    R2       1    A2       5    -D1      0
       Variables:                     
  R1                  0.9589                       
  A1                  106.3341                       
  R2                  0.9627                     
  A2                 118.4414        
  D1                  115.3012  
  Roh                1.0613 
  Roo               2.4164     

--Link1--
%nproc=40
%mem=50gb
# mp2/aug-cc-pVTZ Pop=ChelpG

Title: Rah = 0.8613 Rab = 2.5164 Scans

0 1
 O
 X                    1     1. 
 H                    1    Roh      2    90.
 O                    1    Roo      2     90.      3     0.       0
 H                    1    R1       3    A1       2     0.       0
 H                    4    R2       1    A2       5    D1       0
 H                    4    R2       1    A2       5    -D1      0
       Variables:                     
  R1                  0.9593                       
  A1                  105.6144                       
  R2                  0.9626                     
  A2                 117.2482        
  D1                  116.7367  
  Roh                0.8613 
  Roo               2.5164     

--Link1--
%nproc=40
%mem=50gb
# mp2/aug-cc-pVTZ Pop=ChelpG

Title: Rah = 0.8713 Rab = 2.5164 Scans

0 1
 O
 X                    1     1. 
 H                    1    Roh      2    90.
 O                    1    Roo      2     90.      3     0.       0
 H                    1    R1       3    A1       2     0.       0
 H                    4    R2       1    A2       5    D1       0
 H                    4    R2       1    A2       5    -D1      0
       Variables:                     
  R1                  0.9593                       
  A1                  105.6144                       
  R2                  0.9626                     
  A2                 117.2482        
  D1                  116.7367  
  Roh                0.8713 
  Roo               2.5164     

--Link1--
%nproc=40
%mem=50gb
# mp2/aug-cc-pVTZ Pop=ChelpG

Title: Rah = 0.8813 Rab = 2.5164 Scans

0 1
 O
 X                    1     1. 
 H                    1    Roh      2    90.
 O                    1    Roo      2     90.      3     0.       0
 H                    1    R1       3    A1       2     0.       0
 H                    4    R2       1    A2       5    D1       0
 H                    4    R2       1    A2       5    -D1      0
       Variables:                     
  R1                  0.9593                       
  A1                  105.6144                       
  R2                  0.9626                     
  A2                 117.2482        
  D1                  116.7367  
  Roh                0.8813 
  Roo               2.5164     

--Link1--
%nproc=40
%mem=50gb
# mp2/aug-cc-pVTZ Pop=ChelpG

Title: Rah = 0.8913 Rab = 2.5164 Scans

0 1
 O
 X                    1     1. 
 H                    1    Roh      2    90.
 O                    1    Roo      2     90.      3     0.       0
 H                    1    R1       3    A1       2     0.       0
 H                    4    R2       1    A2       5    D1       0
 H                    4    R2       1    A2       5    -D1      0
       Variables:                     
  R1                  0.9593                       
  A1                  105.6144                       
  R2                  0.9626                     
  A2                 117.2482        
  D1                  116.7367  
  Roh                0.8913 
  Roo               2.5164     

--Link1--
%nproc=40
%mem=50gb
# mp2/aug-cc-pVTZ Pop=ChelpG

Title: Rah = 0.9013 Rab = 2.5164 Scans

0 1
 O
 X                    1     1. 
 H                    1    Roh      2    90.
 O                    1    Roo      2     90.      3     0.       0
 H                    1    R1       3    A1       2     0.       0
 H                    4    R2       1    A2       5    D1       0
 H                    4    R2       1    A2       5    -D1      0
       Variables:                     
  R1                  0.9593                       
  A1                  105.6144                       
  R2                  0.9626                     
  A2                 117.2482        
  D1                  116.7367  
  Roh                0.9013 
  Roo               2.5164     

--Link1--
%nproc=40
%mem=50gb
# mp2/aug-cc-pVTZ Pop=ChelpG

Title: Rah = 0.9113 Rab = 2.5164 Scans

0 1
 O
 X                    1     1. 
 H                    1    Roh      2    90.
 O                    1    Roo      2     90.      3     0.       0
 H                    1    R1       3    A1       2     0.       0
 H                    4    R2       1    A2       5    D1       0
 H                    4    R2       1    A2       5    -D1      0
       Variables:                     
  R1                  0.9593                       
  A1                  105.6144                       
  R2                  0.9626                     
  A2                 117.2482        
  D1                  116.7367  
  Roh                0.9113 
  Roo               2.5164     

--Link1--
%nproc=40
%mem=50gb
# mp2/aug-cc-pVTZ Pop=ChelpG

Title: Rah = 0.9213 Rab = 2.5164 Scans

0 1
 O
 X                    1     1. 
 H                    1    Roh      2    90.
 O                    1    Roo      2     90.      3     0.       0
 H                    1    R1       3    A1       2     0.       0
 H                    4    R2       1    A2       5    D1       0
 H                    4    R2       1    A2       5    -D1      0
       Variables:                     
  R1                  0.9593                       
  A1                  105.6144                       
  R2                  0.9626                     
  A2                 117.2482        
  D1                  116.7367  
  Roh                0.9213 
  Roo               2.5164     

--Link1--
%nproc=40
%mem=50gb
# mp2/aug-cc-pVTZ Pop=ChelpG

Title: Rah = 0.9313 Rab = 2.5164 Scans

0 1
 O
 X                    1     1. 
 H                    1    Roh      2    90.
 O                    1    Roo      2     90.      3     0.       0
 H                    1    R1       3    A1       2     0.       0
 H                    4    R2       1    A2       5    D1       0
 H                    4    R2       1    A2       5    -D1      0
       Variables:                     
  R1                  0.9593                       
  A1                  105.6144                       
  R2                  0.9626                     
  A2                 117.2482        
  D1                  116.7367  
  Roh                0.9313 
  Roo               2.5164     

--Link1--
%nproc=40
%mem=50gb
# mp2/aug-cc-pVTZ Pop=ChelpG

Title: Rah = 0.9413 Rab = 2.5164 Scans

0 1
 O
 X                    1     1. 
 H                    1    Roh      2    90.
 O                    1    Roo      2     90.      3     0.       0
 H                    1    R1       3    A1       2     0.       0
 H                    4    R2       1    A2       5    D1       0
 H                    4    R2       1    A2       5    -D1      0
       Variables:                     
  R1                  0.9593                       
  A1                  105.6144                       
  R2                  0.9626                     
  A2                 117.2482        
  D1                  116.7367  
  Roh                0.9413 
  Roo               2.5164     

--Link1--
%nproc=40
%mem=50gb
# mp2/aug-cc-pVTZ Pop=ChelpG

Title: Rah = 0.9513 Rab = 2.5164 Scans

0 1
 O
 X                    1     1. 
 H                    1    Roh      2    90.
 O                    1    Roo      2     90.      3     0.       0
 H                    1    R1       3    A1       2     0.       0
 H                    4    R2       1    A2       5    D1       0
 H                    4    R2       1    A2       5    -D1      0
       Variables:                     
  R1                  0.9593                       
  A1                  105.6144                       
  R2                  0.9626                     
  A2                 117.2482        
  D1                  116.7367  
  Roh                0.9513 
  Roo               2.5164     

--Link1--
%nproc=40
%mem=50gb
# mp2/aug-cc-pVTZ Pop=ChelpG

Title: Rah = 0.9613 Rab = 2.5164 Scans

0 1
 O
 X                    1     1. 
 H                    1    Roh      2    90.
 O                    1    Roo      2     90.      3     0.       0
 H                    1    R1       3    A1       2     0.       0
 H                    4    R2       1    A2       5    D1       0
 H                    4    R2       1    A2       5    -D1      0
       Variables:                     
  R1                  0.9593                       
  A1                  105.6144                       
  R2                  0.9626                     
  A2                 117.2482        
  D1                  116.7367  
  Roh                0.9613 
  Roo               2.5164     

--Link1--
%nproc=40
%mem=50gb
# mp2/aug-cc-pVTZ Pop=ChelpG

Title: Rah = 0.9713 Rab = 2.5164 Scans

0 1
 O
 X                    1     1. 
 H                    1    Roh      2    90.
 O                    1    Roo      2     90.      3     0.       0
 H                    1    R1       3    A1       2     0.       0
 H                    4    R2       1    A2       5    D1       0
 H                    4    R2       1    A2       5    -D1      0
       Variables:                     
  R1                  0.9593                       
  A1                  105.6144                       
  R2                  0.9626                     
  A2                 117.2482        
  D1                  116.7367  
  Roh                0.9713 
  Roo               2.5164     

--Link1--
%nproc=40
%mem=50gb
# mp2/aug-cc-pVTZ Pop=ChelpG

Title: Rah = 0.9813 Rab = 2.5164 Scans

0 1
 O
 X                    1     1. 
 H                    1    Roh      2    90.
 O                    1    Roo      2     90.      3     0.       0
 H                    1    R1       3    A1       2     0.       0
 H                    4    R2       1    A2       5    D1       0
 H                    4    R2       1    A2       5    -D1      0
       Variables:                     
  R1                  0.9593                       
  A1                  105.6144                       
  R2                  0.9626                     
  A2                 117.2482        
  D1                  116.7367  
  Roh                0.9813 
  Roo               2.5164     

--Link1--
%nproc=40
%mem=50gb
# mp2/aug-cc-pVTZ Pop=ChelpG

Title: Rah = 0.9913 Rab = 2.5164 Scans

0 1
 O
 X                    1     1. 
 H                    1    Roh      2    90.
 O                    1    Roo      2     90.      3     0.       0
 H                    1    R1       3    A1       2     0.       0
 H                    4    R2       1    A2       5    D1       0
 H                    4    R2       1    A2       5    -D1      0
       Variables:                     
  R1                  0.9593                       
  A1                  105.6144                       
  R2                  0.9626                     
  A2                 117.2482        
  D1                  116.7367  
  Roh                0.9913 
  Roo               2.5164     

--Link1--
%nproc=40
%mem=50gb
# mp2/aug-cc-pVTZ Pop=ChelpG

Title: Rah = 1.0013 Rab = 2.5164 Scans

0 1
 O
 X                    1     1. 
 H                    1    Roh      2    90.
 O                    1    Roo      2     90.      3     0.       0
 H                    1    R1       3    A1       2     0.       0
 H                    4    R2       1    A2       5    D1       0
 H                    4    R2       1    A2       5    -D1      0
       Variables:                     
  R1                  0.9593                       
  A1                  105.6144                       
  R2                  0.9626                     
  A2                 117.2482        
  D1                  116.7367  
  Roh                1.0013 
  Roo               2.5164     

--Link1--
%nproc=40
%mem=50gb
# mp2/aug-cc-pVTZ Pop=ChelpG

Title: Rah = 1.0113 Rab = 2.5164 Scans

0 1
 O
 X                    1     1. 
 H                    1    Roh      2    90.
 O                    1    Roo      2     90.      3     0.       0
 H                    1    R1       3    A1       2     0.       0
 H                    4    R2       1    A2       5    D1       0
 H                    4    R2       1    A2       5    -D1      0
       Variables:                     
  R1                  0.9593                       
  A1                  105.6144                       
  R2                  0.9626                     
  A2                 117.2482        
  D1                  116.7367  
  Roh                1.0113 
  Roo               2.5164     

--Link1--
%nproc=40
%mem=50gb
# mp2/aug-cc-pVTZ Pop=ChelpG

Title: Rah = 1.0213 Rab = 2.5164 Scans

0 1
 O
 X                    1     1. 
 H                    1    Roh      2    90.
 O                    1    Roo      2     90.      3     0.       0
 H                    1    R1       3    A1       2     0.       0
 H                    4    R2       1    A2       5    D1       0
 H                    4    R2       1    A2       5    -D1      0
       Variables:                     
  R1                  0.9593                       
  A1                  105.6144                       
  R2                  0.9626                     
  A2                 117.2482        
  D1                  116.7367  
  Roh                1.0213 
  Roo               2.5164     

--Link1--
%nproc=40
%mem=50gb
# mp2/aug-cc-pVTZ Pop=ChelpG

Title: Rah = 1.0313 Rab = 2.5164 Scans

0 1
 O
 X                    1     1. 
 H                    1    Roh      2    90.
 O                    1    Roo      2     90.      3     0.       0
 H                    1    R1       3    A1       2     0.       0
 H                    4    R2       1    A2       5    D1       0