%nproc=28
%mem=50gb
# mp2/aug-cc-pVTZ Pop=ChelpG opt=(z-matrix,MaxCycles=1000) freq

Title: Rah = 2.4164 Rab = -25.0000

0 1
 O
 X                    1     1. 
 H                    1    Roh      2    Aahb
 O                    1    Roo      2     90.      3     0.       0
 H(iso=2.014)                   1    R1       3    A1       2     0.       0
 H(iso=2.014)                   4    R2       1    A2       5    D1       0
 H(iso=2.014)                   4    R2       1    A2       5    -D1      0
       Variables:                     
  R1                  0.9604                       
  A1                  104.1838                       
  R2                  0.9622                     
  A2                 113.8161        
  D1                  120.1361  
  Roh                0.9683 
  
  Roo               2.4164     
  Aahb                 65.0000

--Link1--
%nproc=28
%mem=50gb
# mp2/aug-cc-pVTZ Pop=ChelpG opt=(z-matrix,MaxCycles=1000) freq

Title: Rah = 2.5164 Rab = -25.0000

0 1
 O
 X                    1     1. 
 H                    1    Roh      2    Aahb
 O                    1    Roo      2     90.      3     0.       0
 H(iso=2.014)                   1    R1       3    A1       2     0.       0
 H(iso=2.014)                   4    R2       1    A2       5    D1       0
 H(iso=2.014)                   4    R2       1    A2       5    -D1      0
       Variables:                     
  R1                  0.9604                       
  A1                  104.1838                       
  R2                  0.9622                     
  A2                 113.8161        
  D1                  120.1361  
  Roh                0.9683 
  
  Roo               2.5164     
  Aahb                 65.0000

--Link1--
%nproc=28
%mem=50gb
# mp2/aug-cc-pVTZ Pop=ChelpG opt=(z-matrix,MaxCycles=1000) freq

Title: Rah = 2.6164 Rab = -25.0000

0 1
 O
 X                    1     1. 
 H                    1    Roh      2    Aahb
 O                    1    Roo      2     90.      3     0.       0
 H(iso=2.014)                   1    R1       3    A1       2     0.       0
 H(iso=2.014)                   4    R2       1    A2       5    D1       0
 H(iso=2.014)                   4    R2       1    A2       5    -D1      0
       Variables:                     
  R1                  0.9604                       
  A1                  104.1838                       
  R2                  0.9622                     
  A2                 113.8161        
  D1                  120.1361  
  Roh                0.9683 
  
  Roo               2.6164     
  Aahb                 65.0000

--Link1--
%nproc=28
%mem=50gb
# mp2/aug-cc-pVTZ Pop=ChelpG opt=(z-matrix,MaxCycles=1000) freq

Title: Rah = 2.7164 Rab = -25.0000

0 1
 O
 X                    1     1. 
 H                    1    Roh      2    Aahb
 O                    1    Roo      2     90.      3     0.       0
 H(iso=2.014)                   1    R1       3    A1       2     0.       0
 H(iso=2.014)                   4    R2       1    A2       5    D1       0
 H(iso=2.014)                   4    R2       1    A2       5    -D1      0
       Variables:                     
  R1                  0.9604                       
  A1                  104.1838                       
  R2                  0.9622                     
  A2                 113.8161        
  D1                  120.1361  
  Roh                0.9683 
  
  Roo               2.7164     
  Aahb                 65.0000

--Link1--
%nproc=28
%mem=50gb
# mp2/aug-cc-pVTZ Pop=ChelpG opt=(z-matrix,MaxCycles=1000) freq

Title: Rah = 2.8164 Rab = -25.0000

0 1
 O
 X                    1     1. 
 H                    1    Roh      2    Aahb
 O                    1    Roo      2     90.      3     0.       0
 H(iso=2.014)                   1    R1       3    A1       2     0.       0
 H(iso=2.014)                   4    R2       1    A2       5    D1       0
 H(iso=2.014)                   4    R2       1    A2       5    -D1      0
       Variables:                     
  R1                  0.9604                       
  A1                  104.1838                       
  R2                  0.9622                     
  A2                 113.8161        
  D1                  120.1361  
  Roh                0.9683 
  
  Roo               2.8164     
  Aahb                 65.0000

--Link1--
%nproc=28
%mem=50gb
# mp2/aug-cc-pVTZ Pop=ChelpG opt=(z-matrix,MaxCycles=1000) freq

Title: Rah = 2.9164 Rab = -25.0000

0 1
 O
 X                    1     1. 
 H                    1    Roh      2    Aahb
 O                    1    Roo      2     90.      3     0.       0
 H(iso=2.014)                   1    R1       3    A1       2     0.       0
 H(iso=2.014)                   4    R2       1    A2       5    D1       0
 H(iso=2.014)                   4    R2       1    A2       5    -D1      0
       Variables:                     
  R1                  0.9604                       
  A1                  104.1838                       
  R2                  0.9622                     
  A2                 113.8161        
  D1                  120.1361  
  Roh                0.9683 
  
  Roo               2.9164     
  Aahb                 65.0000

--Link1--
%nproc=28
%mem=50gb
# mp2/aug-cc-pVTZ Pop=ChelpG opt=(z-matrix,MaxCycles=1000) freq

Title: Rah = 3.0164 Rab = -25.0000

0 1
 O
 X                    1     1. 
 H                    1    Roh      2    Aahb
 O                    1    Roo      2     90.      3     0.       0
 H(iso=2.014)                   1    R1       3    A1       2     0.       0
 H(iso=2.014)                   4    R2       1    A2       5    D1       0
 H(iso=2.014)                   4    R2       1    A2       5    -D1      0
       Variables:                     
  R1                  0.9604                       
  A1                  104.1838                       
  R2                  0.9622                     
  A2                 113.8161        
  D1                  120.1361  
  Roh                0.9683 
  
  Roo               3.0164     
  Aahb                 65.0000

--Link1--
%nproc=28
%mem=50gb
# mp2/aug-cc-pVTZ Pop=ChelpG opt=(z-matrix,MaxCycles=1000) freq

Title: Rah = 3.1164 Rab = -25.0000

0 1
 O
 X                    1     1. 
 H                    1    Roh      2    Aahb
 O                    1    Roo      2     90.      3     0.       0
 H(iso=2.014)                   1    R1       3    A1       2     0.       0
 H(iso=2.014)                   4    R2       1    A2       5    D1       0
 H(iso=2.014)                   4    R2       1    A2       5    -D1      0
       Variables:                     
  R1                  0.9604                       
  A1                  104.1838                       
  R2                  0.9622                     
  A2                 113.8161        
  D1                  120.1361  
  Roh                0.9683 
  
  Roo               3.1164     
  Aahb                 65.0000

--Link1--
%nproc=28
%mem=50gb
# mp2/aug-cc-pVTZ Pop=ChelpG opt=(z-matrix,MaxCycles=1000) freq

Title: Rah = 3.2164 Rab = -25.0000

0 1
 O
 X                    1     1. 
 H                    1    Roh      2    Aahb
 O                    1    Roo      2     90.      3     0.       0
 H(iso=2.014)                   1    R1       3    A1       2     0.       0
 H(iso=2.014)                   4    R2       1    A2       5    D1       0
 H(iso=2.014)                   4    R2       1    A2       5    -D1      0
       Variables:                     
  R1                  0.9604                       
  A1                  104.1838                       
  R2                  0.9622                     
  A2                 113.8161        
  D1                  120.1361  
  Roh                0.9683 
  
  Roo               3.2164     
  Aahb                 65.0000

--Link1--
%nproc=28
%mem=50gb
# mp2/aug-cc-pVTZ Pop=ChelpG opt=(z-matrix,MaxCycles=1000) freq

Title: Rah = 3.3164 Rab = -25.0000

0 1
 O
 X                    1     1. 
 H                    1    Roh      2    Aahb
 O                    1    Roo      2     90.      3     0.       0
 H(iso=2.014)                   1    R1       3    A1       2     0.       0
 H(iso=2.014)                   4    R2       1    A2       5    D1       0
 H(iso=2.014)                   4    R2       1    A2       5    -D1      0
       Variables:                     
  R1                  0.9604                       
  A1                  104.1838                       
  R2                  0.9622                     
  A2                 113.8161        
  D1                  120.1361  
  Roh                0.9683 
  
  Roo               3.3164     
  Aahb                 65.0000

--Link1--
%nproc=28
%mem=50gb
# mp2/aug-cc-pVTZ Pop=ChelpG opt=(z-matrix,MaxCycles=1000) freq

Title: Rah = 3.4164 Rab = -25.0000

0 1
 O
 X                    1     1. 
 H                    1    Roh      2    Aahb
 O                    1    Roo      2     90.      3     0.       0
 H(iso=2.014)                   1    R1       3    A1       2     0.       0
 H(iso=2.014)                   4    R2       1    A2       5    D1       0
 H(iso=2.014)                   4    R2       1    A2       5    -D1      0
       Variables:                     
  R1                  0.9604                       
  A1                  104.1838                       
  R2                  0.9622                     
  A2                 113.8161        
  D1                  120.1361  
  Roh                0.9683 
  
  Roo               3.4164     
  Aahb                 65.0000

--Link1--
%nproc=28
%mem=50gb
# mp2/aug-cc-pVTZ Pop=ChelpG opt=(z-matrix,MaxCycles=1000) freq

Title: Rah = 3.5164 Rab = -25.0000

0 1
 O
 X                    1     1. 
 H                    1    Roh      2    Aahb
 O                    1    Roo      2     90.      3     0.       0
 H(iso=2.014)                   1    R1       3    A1       2     0.       0
 H(iso=2.014)                   4    R2       1    A2       5    D1       0
 H(iso=2.014)                   4    R2       1    A2       5    -D1      0
       Variables:                     
  R1                  0.9604                       
  A1                  104.1838                       
  R2                  0.9622                     
  A2                 113.8161        
  D1                  120.1361  
  Roh                0.9683 
  
  Roo               3.5164     
  Aahb                 65.0000

--Link1--
%nproc=28
%mem=50gb
# mp2/aug-cc-pVTZ Pop=ChelpG opt=(z-matrix,MaxCycles=1000) freq

Title: Rah = 3.6164 Rab = -25.0000

0 1
 O
 X                    1     1. 
 H                    1    Roh      2    Aahb
 O                    1    Roo      2     90.      3     0.       0
 H(iso=2.014)                   1    R1       3    A1       2     0.       0
 H(iso=2.014)                   4    R2       1    A2       5    D1       0
 H(iso=2.014)                   4    R2       1    A2       5    -D1      0
       Variables:                     
  R1                  0.9604                       
  A1                  104.1838                       
  R2                  0.9622                     
  A2                 113.8161        
  D1                  120.1361  
  Roh                0.9683 
  
  Roo               3.6164     
  Aahb                 65.0000

--Link1--
%nproc=28
%mem=50gb
# mp2/aug-cc-pVTZ Pop=ChelpG opt=(z-matrix,MaxCycles=1000) freq

Title: Rah = 3.7164 Rab = -25.0000

0 1
 O
 X                    1     1. 
 H                    1    Roh      2    Aahb
 O                    1    Roo      2     90.      3     0.       0
 H(iso=2.014)                   1    R1       3    A1       2     0.       0
 H(iso=2.014)                   4    R2       1    A2       5    D1       0
 H(iso=2.014)                   4    R2       1    A2       5    -D1      0
       Variables:                     
  R1                  0.9604                       
  A1                  104.1838                       
  R2                  0.9622                     
  A2                 113.8161        
  D1                  120.1361  
  Roh                0.9683 
  
  Roo               3.7164     
  Aahb                 65.0000

--Link1--
%nproc=28
%mem=50gb
# mp2/aug-cc-pVTZ Pop=ChelpG opt=(z-matrix,MaxCycles=1000) freq

Title: Rah = 3.8164 Rab = -25.0000

0 1
 O
 X                    1     1. 
 H                    1    Roh      2    Aahb
 O                    1    Roo      2     90.      3     0.       0
 H(iso=2.014)                   1    R1       3    A1       2     0.       0
 H(iso=2.014)                   4    R2       1    A2       5    D1       0
 H(iso=2.014)                   4    R2       1    A2       5    -D1      0
       Variables:                     
  R1                  0.9604                       
  A1                  104.1838                       
  R2                  0.9622                     
  A2                 113.8161        
  D1                  120.1361  
  Roh                0.9683 
  
  Roo               3.8164     
  Aahb                 65.0000

--Link1--
%nproc=28
%mem=50gb
# mp2/aug-cc-pVTZ Pop=ChelpG opt=(z-matrix,MaxCycles=1000) freq

Title: Rah = 3.9164 Rab = -25.0000

0 1
 O
 X                    1     1. 
 H                    1    Roh      2    Aahb
 O                    1    Roo      2     90.      3     0.       0
 H(iso=2.014)                   1    R1       3    A1       2     0.       0
 H(iso=2.014)                   4    R2       1    A2       5    D1       0
 H(iso=2.014)                   4    R2       1    A2       5    -D1      0
       Variables:                     
  R1                  0.9604                       
  A1                  104.1838                       
  R2                  0.9622                     
  A2                 113.8161        
  D1                  120.1361  
  Roh                0.9683 
  
  Roo               3.9164     
  Aahb                 65.0000

--Link1--
%nproc=28
%mem=50gb
# mp2/aug-cc-pVTZ Pop=ChelpG opt=(z-matrix,MaxCycles=1000) freq

Title: Rah = 4.1164 Rab = -25.0000

0 1
 O
 X                    1     1. 
 H                    1    Roh      2    Aahb
 O                    1    Roo      2     90.      3     0.       0
 H(iso=2.014)                   1    R1       3    A1       2     0.       0
 H(iso=2.014)                   4    R2       1    A2       5    D1       0
 H(iso=2.014)                   4    R2       1    A2       5    -D1      0
       Variables:                     
  R1                  0.9604                       
  A1                  104.1838                       
  R2                  0.9622                     
  A2                 113.8161        
  D1                  120.1361  
  Roh                0.9683 
  
  Roo               4.1164     
  Aahb                 65.0000

--Link1--
%nproc=28
%mem=50gb
# mp2/aug-cc-pVTZ Pop=ChelpG opt=(z-matrix,MaxCycles=1000) freq

Title: Rah = 4.3164 Rab = -25.0000

0 1
 O
 X                    1     1. 
 H                    1    Roh      2    Aahb
 O                    1    Roo      2     90.      3     0.       0
 H(iso=2.014)                   1    R1       3    A1       2     0.       0
 H(iso=2.014)                   4    R2       1    A2       5    D1       0
 H(iso=2.014)                   4    R2       1    A2       5    -D1      0
       Variables:                     
  R1                  0.9604                       
  A1                  104.1838                       
  R2                  0.9622                     
  A2                 113.8161        
  D1                  120.1361  
  Roh                0.9683 
  
  Roo               4.3164     
  Aahb                 65.0000

--Link1--
%nproc=28
%mem=50gb
# mp2/aug-cc-pVTZ Pop=ChelpG opt=(z-matrix,MaxCycles=1000) freq

Title: Rah = 4.5164 Rab = -25.0000

0 1
 O
 X                    1     1. 
 H                    1    Roh      2    Aahb
 O                    1    Roo      2     90.      3     0.       0
 H(iso=2.014)                   1    R1       3    A1       2     0.       0
 H(iso=2.014)                   4    R2       1    A2       5    D1       0
 H(iso=2.014)                   4    R2       1    A2       5    -D1      0
       Variables:                     
  R1                  0.9604                       
  A1                  104.1838                       
  R2                  0.9622                     
  A2                 113.8161        
  D1                  120.1361  
  Roh                0.9683 
  
  Roo               4.5164     
  Aahb                 65.0000

--Link1--
%nproc=28
%mem=50gb
# mp2/aug-cc-pVTZ Pop=ChelpG opt=(z-matrix,MaxCycles=1000) freq

Title: Rah = 4.7164 Rab = -25.0000

0 1
 O
 X                    1     1. 
 H                    1    Roh      2    Aahb
 O                    1    Roo      2     90.      3     0.       0
 H(iso=2.014)                   1    R1       3    A1       2     0.       0
 H(iso=2.014)                   4    R2       1    A2       5    D1       0
 H(iso=2.014)                   4    R2       1    A2       5    -D1      0
       Variables:                     
  R1                  0.9604                       
  A1                  104.1838                       
  R2                  0.9622                     
  A2                 113.8161        
  D1                  120.1361  
  Roh                0.9683 
  
  Roo               4.7164     
  Aahb                 65.0000

--Link1--
%nproc=28
%mem=50gb
# mp2/aug-cc-pVTZ Pop=ChelpG opt=(z-matrix,MaxCycles=1000) freq

Title: Rah = 4.9164 Rab = -25.0000

0 1
 O
 X                    1     1. 
 H                    1    Roh      2    Aahb
 O                    1    Roo      2     90.      3     0.       0
 H(iso=2.014)                   1    R1       3    A1       2     0.       0
 H(iso=2.014)                   4    R2       1    A2       5    D1       0
 H(iso=2.014)                   4    R2       1    A2       5    -D1      0
       Variables:                     
  R1                  0.9604                       
  A1                  104.1838                       
  R2                  0.9622                     
  A2                 113.8161        
  D1                  120.1361  
  Roh                0.9683 
  
  Roo               4.9164     
  Aahb                 65.0000

--Link1--
%nproc=28
%mem=50gb
# mp2/aug-cc-pVTZ Pop=ChelpG opt=(z-matrix,MaxCycles=1000) freq

Title: Rah = 5.1164 Rab = -25.0000

0 1
 O
 X                    1     1. 
 H                    1    Roh      2    Aahb
 O                    1    Roo      2     90.      3     0.       0
 H(iso=2.014)                   1    R1       3    A1       2     0.       0
 H(iso=2.014)                   4    R2       1    A2       5    D1       0
 H(iso=2.014)                   4    R2       1    A2       5    -D1      0
       Variables:                     
  R1                  0.9604                       
  A1                  104.1838                       
  R2                  0.9622                     
  A2                 113.8161        
  D1                  120.1361  
  Roh                0.9683 
  
  Roo               5.1164     
  Aahb                 65.0000

--Link1--
%nproc=28
%mem=50gb
# mp2/aug-cc-pVTZ Pop=ChelpG opt=(z-matrix,MaxCycles=1000) freq

Title: Rah = 5.3164 Rab = -25.0000

0 1
 O
 X                    1     1. 
 H                    1    Roh      2    Aahb
 O                    1    Roo      2     90.      3     0.       0
 H(iso=2.014)                   1    R1       3    A1       2     0.       0
 H(iso=2.014)                   4    R2       1    A2       5    D1       0
 H(iso=2.014)                   4    R2       1    A2       5    -D1      0
       Variables:                     
  R1                  0.9604                       
  A1                  104.1838                       
  R2                  0.9622                     
  A2                 113.8161        
  D1                  120.1361  
  Roh                0.9683 
  
  Roo               5.3164     
  Aahb                 65.0000

--Link1--
%nproc=28
%mem=50gb
# mp2/aug-cc-pVTZ Pop=ChelpG opt=(z-matrix,MaxCycles=1000) freq

Title: Rah = 5.5164 Rab = -25.0000

0 1
 O
 X                    1     1. 
 H                    1    Roh      2    Aahb
 O                    1    Roo      2     90.      3     0.       0
 H(iso=2.014)                   1    R1       3    A1       2     0.       0
 H(iso=2.014)                   4    R2       1    A2       5    D1       0
 H(iso=2.014)                   4    R2       1    A2       5    -D1      0
       Variables:                     
  R1                  0.9604                       
  A1                  104.1838                       
  R2                  0.9622                     
  A2                 113.8161        
  D1                  120.1361  
  Roh                0.9683 
  
  Roo               5.5164     
  Aahb                 65.0000

--Link1--
%nproc=28
%mem=50gb
# mp2/aug-cc-pVTZ Pop=ChelpG opt=(z-matrix,MaxCycles=1000) freq

Title: Rah = 5.7164 Rab = -25.0000

0 1
 O
 X                    1     1. 
 H                    1    Roh      2    Aahb
 O                    1    Roo      2     90.      3     0.       0
 H(iso=2.014)                   1    R1       3    A1       2     0.       0
 H(iso=2.014)                   4    R2       1    A2       5    D1       0
 H(iso=2.014)                   4    R2       1    A2       5    -D1      0
       Variables:                     
  R1                  0.9604                       
  A1                  104.1838                       
  R2                  0.9622                     
  A2                 113.8161        
  D1                  120.1361  
  Roh                0.9683 
  
  Roo               5.7164     
  Aahb                 65.0000

--Link1--
%nproc=28
%mem=50gb
# mp2/aug-cc-pVTZ Pop=ChelpG opt=(z-matrix,MaxCycles=1000) freq

Title: Rah = 5.9164 Rab = -25.0000

0 1
 O
 X                    1     1. 
 H                    1    Roh      2    Aahb
 O                    1    Roo      2     90.      3     0.       0
 H(iso=2.014)                   1    R1       3    A1       2     0.       0
 H(iso=2.014)                   4    R2       1    A2       5    D1       0
 H(iso=2.014)                   4    R2       1    A2       5    -D1      0
       Variables:                     
  R1                  0.9604                       
  A1                  104.1838                       
  R2                  0.9622                     
  A2                 113.8161        
  D1                  120.1361  
  Roh                0.9683 
  
  Roo               5.9164     
  Aahb                 65.0000

--Link1--
%nproc=28
%mem=50gb
# mp2/aug-cc-pVTZ Pop=ChelpG opt=(z-matrix,MaxCycles=1000) freq

Title: Rah = 2.4164 Rab = -20.0000

0 1
 O
 X                    1     1. 
 H                    1    Roh      2    Aahb
 O                    1    Roo      2     90.      3     0.       0
 H(iso=2.014)                   1    R1       3    A1       2     0.       0
 H(iso=2.014)                   4    R2       1    A2       5    D1       0
 H(iso=2.014)                   4    R2       1    A2       5    -D1      0
       Variables:                     
  R1                  0.9604                       
  A1                  104.1838                       
  R2                  0.9622                     
  A2                 113.8161        
  D1                  120.1361  
  Roh                0.9683 
  
  Roo               2.4164     
  Aahb                 70.0000

--Link1--
%nproc=28
%mem=50gb
# mp2/aug-cc-pVTZ Pop=ChelpG opt=(z-matrix,MaxCycles=1000) freq

Title: Rah = 2.5164 Rab = -20.0000

0 1
 O
 X                    1     1. 
 H                    1    Roh      2    Aahb
 O                    1    Roo      2     90.      3     0.       0
 H(iso=2.014)                   1    R1       3    A1       2     0.       0
 H(iso=2.014)                   4    R2       1    A2       5    D1       0
 H(iso=2.014)                   4    R2       1    A2       5    -D1      0
       Variables:                     
  R1                  0.9604                       
  A1                  104.1838                       
  R2                  0.9622                     
  A2                 113.8161        
  D1                  120.1361  
  Roh                0.9683 
  
  Roo               2.5164     
  Aahb                 70.0000

--Link1--
%nproc=28
%mem=50gb
# mp2/aug-cc-pVTZ Pop=ChelpG opt=(z-matrix,MaxCycles=1000) freq

Title: Rah = 2.6164 Rab = -20.0000

0 1
 O
 X                    1     1. 
 H                    1    Roh      2    Aahb
 O                    1    Roo      2     90.      3     0.       0
 H(iso=2.014)                   1    R1       3    A1       2     0.       0
 H(iso=2.014)                   4    R2       1    A2       5    D1       0
 H(iso=2.014)                   4    R2       1    A2       5    -D1      0
       Variables:                     
  R1                  0.9604                       
  A1                  104.1838                       
  R2                  0.9622                     
  A2                 113.8161        
  D1                  120.1361  
  Roh                0.9683 
  
  Roo               2.6164     
  Aahb                 70.0000

--Link1--
%nproc=28
%mem=50gb
# mp2/aug-cc-pVTZ Pop=ChelpG opt=(z-matrix,MaxCycles=1000) freq

Title: Rah = 2.7164 Rab = -20.0000

0 1
 O
 X                    1     1. 
 H                    1    Roh      2    Aahb
 O                    1    Roo      2     90.      3     0.       0
 H(iso=2.014)                   1    R1       3    A1       2     0.       0
 H(iso=2.014)                   4    R2       1    A2       5    D1       0
 H(iso=2.014)                   4    R2       1    A2       5    -D1      0
       Variables:                     
  R1                  0.9604                       
  A1                  104.1838                       
  R2                  0.9622                     
  A2                 113.8161        
  D1                  120.1361  
  Roh                0.9683 
  
  Roo               2.7164     
  Aahb                 70.0000

--Link1--
%nproc=28
%mem=50gb
# mp2/aug-cc-pVTZ Pop=ChelpG opt=(z-matrix,MaxCycles=1000) freq

Title: Rah = 2.8164 Rab = -20.0000

0 1
 O
 X                    1     1. 
 H                    1    Roh      2    Aahb
 O                    1    Roo      2     90.      3     0.       0
 H(iso=2.014)                   1    R1       3    A1       2     0.       0
 H(iso=2.014)                   4    R2       1    A2       5    D1       0
 H(iso=2.014)                   4    R2       1    A2       5    -D1      0
       Variables:                     
  R1                  0.9604                       
  A1                  104.1838                       
  R2                  0.9622                     
  A2                 113.8161        
  D1                  120.1361  
  Roh                0.9683 
  
  Roo               2.8164     
  Aahb                 70.0000

--Link1--
%nproc=28
%mem=50gb
# mp2/aug-cc-pVTZ Pop=ChelpG opt=(z-matrix,MaxCycles=1000) freq

Title: Rah = 2.9164 Rab = -20.0000

0 1
 O
 X                    1     1. 
 H                    1    Roh      2    Aahb
 O                    1    Roo      2     90.      3     0.       0
 H(iso=2.014)                   1    R1       3    A1       2     0.       0
 H(iso=2.014)                   4    R2       1    A2       5    D1       0
 H(iso=2.014)                   4    R2       1    A2       5    -D1      0
       Variables:                     
  R1                  0.9604                       
  A1                  104.1838                       
  R2                  0.9622                     
  A2                 113.8161        
  D1                  120.1361  
  Roh                0.9683 
  
  Roo               2.9164     
  Aahb                 70.0000

--Link1--
%nproc=28
%mem=50gb
# mp2/aug-cc-pVTZ Pop=ChelpG opt=(z-matrix,MaxCycles=1000) freq

Title: Rah = 3.0164 Rab = -20.0000

0 1
 O
 X                    1     1. 
 H                    1    Roh      2    Aahb
 O                    1    Roo      2     90.      3     0.       0
 H(iso=2.014)                   1    R1       3    A1       2     0.       0
 H(iso=2.014)                   4    R2       1    A2       5    D1       0
 H(iso=2.014)                   4    R2       1    A2       5    -D1      0
       Variables:                     
  R1                  0.9604                       
  A1                  104.1838                       
  R2                  0.9622                     
  A2                 113.8161        
  D1                  120.1361  
  Roh                0.9683 
  
  Roo               3.0164     
  Aahb                 70.0000

--Link1--
%nproc=28
%mem=50gb
# mp2/aug-cc-pVTZ Pop=ChelpG opt=(z-matrix,MaxCycles=1000) freq

Title: Rah = 3.1164 Rab = -20.0000

0 1
 O
 X                    1     1. 
 H                    1    Roh      2    Aahb
 O                    1    Roo      2     90.      3     0.       0
 H(iso=2.014)                   1    R1       3    A1       2     0.       0
 H(iso=2.014)                   4    R2       1    A2       5    D1       0
 H(iso=2.014)                   4    R2       1    A2       5    -D1      0
       Variables:                     
  R1                  0.9604                       
  A1                  104.1838                       
  R2                  0.9622                     
  A2                 113.8161        
  D1                  120.1361  
  Roh                0.9683 
  
  Roo               3.1164     
  Aahb                 70.0000

--Link1--
%nproc=28
%mem=50gb
# mp2/aug-cc-pVTZ Pop=ChelpG opt=(z-matrix,MaxCycles=1000) freq

Title: Rah = 3.2164 Rab = -20.0000

0 1
 O
 X                    1     1. 
 H                    1    Roh      2    Aahb