%nproc=40
%mem=50gb
# mp2/aug-cc-pVTZ Pop=ChelpG

Title: R = 0.9121

0 1
N
X 1 1.0
H 1 R1 2 A1
H 1 R2 2 A2 3 -D1
H 1 R2 2 A2 3 D1

R2=1.0121
A1=112.0482
A2=112.0482
D1=120.0
R1=0.9121

--Link1--
%nproc=40
%mem=50gb
# mp2/aug-cc-pVTZ Pop=ChelpG

Title: R = 0.9221

0 1
N
X 1 1.0
H 1 R1 2 A1
H 1 R2 2 A2 3 -D1
H 1 R2 2 A2 3 D1

R2=1.0121
A1=112.0482
A2=112.0482
D1=120.0
R1=0.9221

--Link1--
%nproc=40
%mem=50gb
# mp2/aug-cc-pVTZ Pop=ChelpG

Title: R = 0.9321

0 1
N
X 1 1.0
H 1 R1 2 A1
H 1 R2 2 A2 3 -D1
H 1 R2 2 A2 3 D1

R2=1.0121
A1=112.0482
A2=112.0482
D1=120.0
R1=0.9321

--Link1--
%nproc=40
%mem=50gb
# mp2/aug-cc-pVTZ Pop=ChelpG

Title: R = 0.9421

0 1
N
X 1 1.0
H 1 R1 2 A1
H 1 R2 2 A2 3 -D1
H 1 R2 2 A2 3 D1

R2=1.0121
A1=112.0482
A2=112.0482
D1=120.0
R1=0.9421

--Link1--
%nproc=40
%mem=50gb
# mp2/aug-cc-pVTZ Pop=ChelpG

Title: R = 0.9521

0 1
N
X 1 1.0
H 1 R1 2 A1
H 1 R2 2 A2 3 -D1
H 1 R2 2 A2 3 D1

R2=1.0121
A1=112.0482
A2=112.0482
D1=120.0
R1=0.9521

--Link1--
%nproc=40
%mem=50gb
# mp2/aug-cc-pVTZ Pop=ChelpG

Title: R = 0.9621

0 1
N
X 1 1.0
H 1 R1 2 A1
H 1 R2 2 A2 3 -D1
H 1 R2 2 A2 3 D1

R2=1.0121
A1=112.0482
A2=112.0482
D1=120.0
R1=0.9621

--Link1--
%nproc=40
%mem=50gb
# mp2/aug-cc-pVTZ Pop=ChelpG

Title: R = 0.9721

0 1
N
X 1 1.0
H 1 R1 2 A1
H 1 R2 2 A2 3 -D1
H 1 R2 2 A2 3 D1

R2=1.0121
A1=112.0482
A2=112.0482
D1=120.0
R1=0.9721

--Link1--
%nproc=40
%mem=50gb
# mp2/aug-cc-pVTZ Pop=ChelpG

Title: R = 0.9821

0 1
N
X 1 1.0
H 1 R1 2 A1
H 1 R2 2 A2 3 -D1
H 1 R2 2 A2 3 D1

R2=1.0121
A1=112.0482
A2=112.0482
D1=120.0
R1=0.9821

--Link1--
%nproc=40
%mem=50gb
# mp2/aug-cc-pVTZ Pop=ChelpG

Title: R = 0.9921

0 1
N
X 1 1.0
H 1 R1 2 A1
H 1 R2 2 A2 3 -D1
H 1 R2 2 A2 3 D1

R2=1.0121
A1=112.0482
A2=112.0482
D1=120.0
R1=0.9921

--Link1--
%nproc=40
%mem=50gb
# mp2/aug-cc-pVTZ Pop=ChelpG

Title: R = 1.0021

0 1
N
X 1 1.0
H 1 R1 2 A1
H 1 R2 2 A2 3 -D1
H 1 R2 2 A2 3 D1

R2=1.0121
A1=112.0482
A2=112.0482
D1=120.0
R1=1.0021

--Link1--
%nproc=40
%mem=50gb
# mp2/aug-cc-pVTZ Pop=ChelpG

Title: R = 1.0121

0 1
N
X 1 1.0
H 1 R1 2 A1
H 1 R2 2 A2 3 -D1
H 1 R2 2 A2 3 D1

R2=1.0121
A1=112.0482
A2=112.0482
D1=120.0
R1=1.0121

--Link1--
%nproc=40
%mem=50gb
# mp2/aug-cc-pVTZ Pop=ChelpG

Title: R = 1.0221

0 1
N
X 1 1.0
H 1 R1 2 A1
H 1 R2 2 A2 3 -D1
H 1 R2 2 A2 3 D1

R2=1.0121
A1=112.0482
A2=112.0482
D1=120.0
R1=1.0221

--Link1--
%nproc=40
%mem=50gb
# mp2/aug-cc-pVTZ Pop=ChelpG

Title: R = 1.0321

0 1
N
X 1 1.0
H 1 R1 2 A1
H 1 R2 2 A2 3 -D1
H 1 R2 2 A2 3 D1

R2=1.0121
A1=112.0482
A2=112.0482
D1=120.0
R1=1.0321

--Link1--
%nproc=40
%mem=50gb
# mp2/aug-cc-pVTZ Pop=ChelpG

Title: R = 1.0421

0 1
N
X 1 1.0
H 1 R1 2 A1
H 1 R2 2 A2 3 -D1
H 1 R2 2 A2 3 D1

R2=1.0121
A1=112.0482
A2=112.0482
D1=120.0
R1=1.0421

--Link1--
%nproc=40
%mem=50gb
# mp2/aug-cc-pVTZ Pop=ChelpG

Title: R = 1.0521

0 1
N
X 1 1.0
H 1 R1 2 A1
H 1 R2 2 A2 3 -D1
H 1 R2 2 A2 3 D1

R2=1.0121
A1=112.0482
A2=112.0482
D1=120.0
R1=1.0521

--Link1--
%nproc=40
%mem=50gb
# mp2/aug-cc-pVTZ Pop=ChelpG

Title: R = 1.0621

0 1
N
X 1 1.0
H 1 R1 2 A1
H 1 R2 2 A2 3 -D1
H 1 R2 2 A2 3 D1

R2=1.0121
A1=112.0482
A2=112.0482
D1=120.0
R1=1.0621

--Link1--
%nproc=40
%mem=50gb
# mp2/aug-cc-pVTZ Pop=ChelpG

Title: R = 1.0721

0 1
N
X 1 1.0
H 1 R1 2 A1
H 1 R2 2 A2 3 -D1
H 1 R2 2 A2 3 D1

R2=1.0121
A1=112.0482
A2=112.0482
D1=120.0
R1=1.0721

--Link1--
%nproc=40
%mem=50gb
# mp2/aug-cc-pVTZ Pop=ChelpG

Title: R = 1.0821

0 1
N
X 1 1.0
H 1 R1 2 A1
H 1 R2 2 A2 3 -D1
H 1 R2 2 A2 3 D1

R2=1.0121
A1=112.0482
A2=112.0482
D1=120.0
R1=1.0821

--Link1--
%nproc=40
%mem=50gb
# mp2/aug-cc-pVTZ Pop=ChelpG

Title: R = 1.0921

0 1
N
X 1 1.0
H 1 R1 2 A1
H 1 R2 2 A2 3 -D1
H 1 R2 2 A2 3 D1

R2=1.0121
A1=112.0482
A2=112.0482
D1=120.0
R1=1.0921

--Link1--
%nproc=40
%mem=50gb
# mp2/aug-cc-pVTZ Pop=ChelpG

Title: R = 1.1021

0 1
N
X 1 1.0
H 1 R1 2 A1
H 1 R2 2 A2 3 -D1
H 1 R2 2 A2 3 D1

R2=1.0121
A1=112.0482
A2=112.0482
D1=120.0
R1=1.1021

--Link1--
%nproc=40
%mem=50gb
# mp2/aug-cc-pVTZ Pop=ChelpG

Title: R = 1.1121

0 1
N
X 1 1.0
H 1 R1 2 A1
H 1 R2 2 A2 3 -D1
H 1 R2 2 A2 3 D1

R2=1.0121
A1=112.0482
A2=112.0482
D1=120.0
R1=1.1121

