%nproc=40
%mem=50gb
# mp2/aug-cc-pVTZ pop=ChelpG opt=(z-matrix,MaxCycles=1000,MaxStep=1,CalcFC) freq

Title: Rab = 2.6361 Aabh = -3.0000

0 1
 F
 X                    1     1. 
 H                    1    Rah      2     Aahb
 N                    1    Rab      2     90.      3    0.0        0
 H(Iso=2)                    4    R1       3    A1       2     0.       0
 H(Iso=2)                    4    R2       3    A2       2     D1     0
 H(Iso=2)                    4    R2       3    A2       2    -D1     0
       Variables:
  R1                   1.0125     
  R2                 1.0125              
  A1                  111.5610
  A2                   111.5610       
  Rah                   0.9572      
  D1                   120.0
               
  Rab                   2.6361     
  Aahb                  87.0000

--Link1--
%nproc=40
%mem=50gb
# mp2/aug-cc-pVTZ pop=ChelpG opt=(z-matrix,MaxCycles=1000,MaxStep=1,CalcFC) freq

Title: Rab = 2.7361 Aabh = -3.0000

0 1
 F
 X                    1     1. 
 H                    1    Rah      2     Aahb
 N                    1    Rab      2     90.      3    0.0        0
 H(Iso=2)                    4    R1       3    A1       2     0.       0
 H(Iso=2)                    4    R2       3    A2       2     D1     0
 H(Iso=2)                    4    R2       3    A2       2    -D1     0
       Variables:
  R1                   1.0125     
  R2                 1.0125              
  A1                  111.5610
  A2                   111.5610       
  Rah                   0.9572      
  D1                   120.0
               
  Rab                   2.7361     
  Aahb                  87.0000

--Link1--
%nproc=40
%mem=50gb
# mp2/aug-cc-pVTZ pop=ChelpG opt=(z-matrix,MaxCycles=1000,MaxStep=1,CalcFC) freq

Title: Rab = 2.8361 Aabh = -3.0000

0 1
 F
 X                    1     1. 
 H                    1    Rah      2     Aahb
 N                    1    Rab      2     90.      3    0.0        0
 H(Iso=2)                    4    R1       3    A1       2     0.       0
 H(Iso=2)                    4    R2       3    A2       2     D1     0
 H(Iso=2)                    4    R2       3    A2       2    -D1     0
       Variables:
  R1                   1.0125     
  R2                 1.0125              
  A1                  111.5610
  A2                   111.5610       
  Rah                   0.9572      
  D1                   120.0
               
  Rab                   2.8361     
  Aahb                  87.0000

--Link1--
%nproc=40
%mem=50gb
# mp2/aug-cc-pVTZ pop=ChelpG opt=(z-matrix,MaxCycles=1000,MaxStep=1,CalcFC) freq

Title: Rab = 2.9361 Aabh = -3.0000

0 1
 F
 X                    1     1. 
 H                    1    Rah      2     Aahb
 N                    1    Rab      2     90.      3    0.0        0
 H(Iso=2)                    4    R1       3    A1       2     0.       0
 H(Iso=2)                    4    R2       3    A2       2     D1     0
 H(Iso=2)                    4    R2       3    A2       2    -D1     0
       Variables:
  R1                   1.0125     
  R2                 1.0125              
  A1                  111.5610
  A2                   111.5610       
  Rah                   0.9572      
  D1                   120.0
               
  Rab                   2.9361     
  Aahb                  87.0000

--Link1--
%nproc=40
%mem=50gb
# mp2/aug-cc-pVTZ pop=ChelpG opt=(z-matrix,MaxCycles=1000,MaxStep=1,CalcFC) freq

Title: Rab = 3.0361 Aabh = -3.0000

0 1
 F
 X                    1     1. 
 H                    1    Rah      2     Aahb
 N                    1    Rab      2     90.      3    0.0        0
 H(Iso=2)                    4    R1       3    A1       2     0.       0
 H(Iso=2)                    4    R2       3    A2       2     D1     0
 H(Iso=2)                    4    R2       3    A2       2    -D1     0
       Variables:
  R1                   1.0125     
  R2                 1.0125              
  A1                  111.5610
  A2                   111.5610       
  Rah                   0.9572      
  D1                   120.0
               
  Rab                   3.0361     
  Aahb                  87.0000

--Link1--
%nproc=40
%mem=50gb
# mp2/aug-cc-pVTZ pop=ChelpG opt=(z-matrix,MaxCycles=1000,MaxStep=1,CalcFC) freq

Title: Rab = 3.1361 Aabh = -3.0000

0 1
 F
 X                    1     1. 
 H                    1    Rah      2     Aahb
 N                    1    Rab      2     90.      3    0.0        0
 H(Iso=2)                    4    R1       3    A1       2     0.       0
 H(Iso=2)                    4    R2       3    A2       2     D1     0
 H(Iso=2)                    4    R2       3    A2       2    -D1     0
       Variables:
  R1                   1.0125     
  R2                 1.0125              
  A1                  111.5610
  A2                   111.5610       
  Rah                   0.9572      
  D1                   120.0
               
  Rab                   3.1361     
  Aahb                  87.0000

--Link1--
%nproc=40
%mem=50gb
# mp2/aug-cc-pVTZ pop=ChelpG opt=(z-matrix,MaxCycles=1000,MaxStep=1,CalcFC) freq

Title: Rab = 3.2361 Aabh = -3.0000

0 1
 F
 X                    1     1. 
 H                    1    Rah      2     Aahb
 N                    1    Rab      2     90.      3    0.0        0
 H(Iso=2)                    4    R1       3    A1       2     0.       0
 H(Iso=2)                    4    R2       3    A2       2     D1     0
 H(Iso=2)                    4    R2       3    A2       2    -D1     0
       Variables:
  R1                   1.0125     
  R2                 1.0125              
  A1                  111.5610
  A2                   111.5610       
  Rah                   0.9572      
  D1                   120.0
               
  Rab                   3.2361     
  Aahb                  87.0000

--Link1--
%nproc=40
%mem=50gb
# mp2/aug-cc-pVTZ pop=ChelpG opt=(z-matrix,MaxCycles=1000,MaxStep=1,CalcFC) freq

Title: Rab = 3.3361 Aabh = -3.0000

0 1
 F
 X                    1     1. 
 H                    1    Rah      2     Aahb
 N                    1    Rab      2     90.      3    0.0        0
 H(Iso=2)                    4    R1       3    A1       2     0.       0
 H(Iso=2)                    4    R2       3    A2       2     D1     0
 H(Iso=2)                    4    R2       3    A2       2    -D1     0
       Variables:
  R1                   1.0125     
  R2                 1.0125              
  A1                  111.5610
  A2                   111.5610       
  Rah                   0.9572      
  D1                   120.0
               
  Rab                   3.3361     
  Aahb                  87.0000

--Link1--
%nproc=40
%mem=50gb
# mp2/aug-cc-pVTZ pop=ChelpG opt=(z-matrix,MaxCycles=1000,MaxStep=1,CalcFC) freq

Title: Rab = 3.4361 Aabh = -3.0000

0 1
 F
 X                    1     1. 
 H                    1    Rah      2     Aahb
 N                    1    Rab      2     90.      3    0.0        0
 H(Iso=2)                    4    R1       3    A1       2     0.       0
 H(Iso=2)                    4    R2       3    A2       2     D1     0
 H(Iso=2)                    4    R2       3    A2       2    -D1     0
       Variables:
  R1                   1.0125     
  R2                 1.0125              
  A1                  111.5610
  A2                   111.5610       
  Rah                   0.9572      
  D1                   120.0
               
  Rab                   3.4361     
  Aahb                  87.0000

--Link1--
%nproc=40
%mem=50gb
# mp2/aug-cc-pVTZ pop=ChelpG opt=(z-matrix,MaxCycles=1000,MaxStep=1,CalcFC) freq

Title: Rab = 3.5361 Aabh = -3.0000

0 1
 F
 X                    1     1. 
 H                    1    Rah      2     Aahb
 N                    1    Rab      2     90.      3    0.0        0
 H(Iso=2)                    4    R1       3    A1       2     0.       0
 H(Iso=2)                    4    R2       3    A2       2     D1     0
 H(Iso=2)                    4    R2       3    A2       2    -D1     0
       Variables:
  R1                   1.0125     
  R2                 1.0125              
  A1                  111.5610
  A2                   111.5610       
  Rah                   0.9572      
  D1                   120.0
               
  Rab                   3.5361     
  Aahb                  87.0000

--Link1--
%nproc=40
%mem=50gb
# mp2/aug-cc-pVTZ pop=ChelpG opt=(z-matrix,MaxCycles=1000,MaxStep=1,CalcFC) freq

Title: Rab = 3.6361 Aabh = -3.0000

0 1
 F
 X                    1     1. 
 H                    1    Rah      2     Aahb
 N                    1    Rab      2     90.      3    0.0        0
 H(Iso=2)                    4    R1       3    A1       2     0.       0
 H(Iso=2)                    4    R2       3    A2       2     D1     0
 H(Iso=2)                    4    R2       3    A2       2    -D1     0
       Variables:
  R1                   1.0125     
  R2                 1.0125              
  A1                  111.5610
  A2                   111.5610       
  Rah                   0.9572      
  D1                   120.0
               
  Rab                   3.6361     
  Aahb                  87.0000

--Link1--
%nproc=40
%mem=50gb
# mp2/aug-cc-pVTZ pop=ChelpG opt=(z-matrix,MaxCycles=1000,MaxStep=1,CalcFC) freq

Title: Rab = 3.8361 Aabh = -3.0000

0 1
 F
 X                    1     1. 
 H                    1    Rah      2     Aahb
 N                    1    Rab      2     90.      3    0.0        0
 H(Iso=2)                    4    R1       3    A1       2     0.       0
 H(Iso=2)                    4    R2       3    A2       2     D1     0
 H(Iso=2)                    4    R2       3    A2       2    -D1     0
       Variables:
  R1                   1.0125     
  R2                 1.0125              
  A1                  111.5610
  A2                   111.5610       
  Rah                   0.9572      
  D1                   120.0
               
  Rab                   3.8361     
  Aahb                  87.0000

--Link1--
%nproc=40
%mem=50gb
# mp2/aug-cc-pVTZ pop=ChelpG opt=(z-matrix,MaxCycles=1000,MaxStep=1,CalcFC) freq

Title: Rab = 4.0361 Aabh = -3.0000

0 1
 F
 X                    1     1. 
 H                    1    Rah      2     Aahb
 N                    1    Rab      2     90.      3    0.0        0
 H(Iso=2)                    4    R1       3    A1       2     0.       0
 H(Iso=2)                    4    R2       3    A2       2     D1     0
 H(Iso=2)                    4    R2       3    A2       2    -D1     0
       Variables:
  R1                   1.0125     
  R2                 1.0125              
  A1                  111.5610
  A2                   111.5610       
  Rah                   0.9572      
  D1                   120.0
               
  Rab                   4.0361     
  Aahb                  87.0000

--Link1--
%nproc=40
%mem=50gb
# mp2/aug-cc-pVTZ pop=ChelpG opt=(z-matrix,MaxCycles=1000,MaxStep=1,CalcFC) freq

Title: Rab = 4.2361 Aabh = -3.0000

0 1
 F
 X                    1     1. 
 H                    1    Rah      2     Aahb
 N                    1    Rab      2     90.      3    0.0        0
 H(Iso=2)                    4    R1       3    A1       2     0.       0
 H(Iso=2)                    4    R2       3    A2       2     D1     0
 H(Iso=2)                    4    R2       3    A2       2    -D1     0
       Variables:
  R1                   1.0125     
  R2                 1.0125              
  A1                  111.5610
  A2                   111.5610       
  Rah                   0.9572      
  D1                   120.0
               
  Rab                   4.2361     
  Aahb                  87.0000

--Link1--
%nproc=40
%mem=50gb
# mp2/aug-cc-pVTZ pop=ChelpG opt=(z-matrix,MaxCycles=1000,MaxStep=1,CalcFC) freq

Title: Rab = 4.4361 Aabh = -3.0000

0 1
 F
 X                    1     1. 
 H                    1    Rah      2     Aahb
 N                    1    Rab      2     90.      3    0.0        0
 H(Iso=2)                    4    R1       3    A1       2     0.       0
 H(Iso=2)                    4    R2       3    A2       2     D1     0
 H(Iso=2)                    4    R2       3    A2       2    -D1     0
       Variables:
  R1                   1.0125     
  R2                 1.0125              
  A1                  111.5610
  A2                   111.5610       
  Rah                   0.9572      
  D1                   120.0
               
  Rab                   4.4361     
  Aahb                  87.0000

--Link1--
%nproc=40
%mem=50gb
# mp2/aug-cc-pVTZ pop=ChelpG opt=(z-matrix,MaxCycles=1000,MaxStep=1,CalcFC) freq

Title: Rab = 4.6361 Aabh = -3.0000

0 1
 F
 X                    1     1. 
 H                    1    Rah      2     Aahb
 N                    1    Rab      2     90.      3    0.0        0
 H(Iso=2)                    4    R1       3    A1       2     0.       0
 H(Iso=2)                    4    R2       3    A2       2     D1     0
 H(Iso=2)                    4    R2       3    A2       2    -D1     0
       Variables:
  R1                   1.0125     
  R2                 1.0125              
  A1                  111.5610
  A2                   111.5610       
  Rah                   0.9572      
  D1                   120.0
               
  Rab                   4.6361     
  Aahb                  87.0000

--Link1--
%nproc=40
%mem=50gb
# mp2/aug-cc-pVTZ pop=ChelpG opt=(z-matrix,MaxCycles=1000,MaxStep=1,CalcFC) freq

Title: Rab = 4.8361 Aabh = -3.0000

0 1
 F
 X                    1     1. 
 H                    1    Rah      2     Aahb
 N                    1    Rab      2     90.      3    0.0        0
 H(Iso=2)                    4    R1       3    A1       2     0.       0
 H(Iso=2)                    4    R2       3    A2       2     D1     0
 H(Iso=2)                    4    R2       3    A2       2    -D1     0
       Variables:
  R1                   1.0125     
  R2                 1.0125              
  A1                  111.5610
  A2                   111.5610       
  Rah                   0.9572      
  D1                   120.0
               
  Rab                   4.8361     
  Aahb                  87.0000

--Link1--
%nproc=40
%mem=50gb
# mp2/aug-cc-pVTZ pop=ChelpG opt=(z-matrix,MaxCycles=1000,MaxStep=1,CalcFC) freq

Title: Rab = 5.0361 Aabh = -3.0000

0 1
 F
 X                    1     1. 
 H                    1    Rah      2     Aahb
 N                    1    Rab      2     90.      3    0.0        0
 H(Iso=2)                    4    R1       3    A1       2     0.       0
 H(Iso=2)                    4    R2       3    A2       2     D1     0
 H(Iso=2)                    4    R2       3    A2       2    -D1     0
       Variables:
  R1                   1.0125     
  R2                 1.0125              
  A1                  111.5610
  A2                   111.5610       
  Rah                   0.9572      
  D1                   120.0
               
  Rab                   5.0361     
  Aahb                  87.0000

--Link1--
%nproc=40
%mem=50gb
# mp2/aug-cc-pVTZ pop=ChelpG opt=(z-matrix,MaxCycles=1000,MaxStep=1,CalcFC) freq

Title: Rab = 5.2361 Aabh = -3.0000

0 1
 F
 X                    1     1. 
 H                    1    Rah      2     Aahb
 N                    1    Rab      2     90.      3    0.0        0
 H(Iso=2)                    4    R1       3    A1       2     0.       0
 H(Iso=2)                    4    R2       3    A2       2     D1     0
 H(Iso=2)                    4    R2       3    A2       2    -D1     0
       Variables:
  R1                   1.0125     
  R2                 1.0125              
  A1                  111.5610
  A2                   111.5610       
  Rah                   0.9572      
  D1                   120.0
               
  Rab                   5.2361     
  Aahb                  87.0000

--Link1--
%nproc=40
%mem=50gb
# mp2/aug-cc-pVTZ pop=ChelpG opt=(z-matrix,MaxCycles=1000,MaxStep=1,CalcFC) freq

Title: Rab = 5.4361 Aabh = -3.0000

0 1
 F
 X                    1     1. 
 H                    1    Rah      2     Aahb
 N                    1    Rab      2     90.      3    0.0        0
 H(Iso=2)                    4    R1       3    A1       2     0.       0
 H(Iso=2)                    4    R2       3    A2       2     D1     0
 H(Iso=2)                    4    R2       3    A2       2    -D1     0
       Variables:
  R1                   1.0125     
  R2                 1.0125              
  A1                  111.5610
  A2                   111.5610       
  Rah                   0.9572      
  D1                   120.0
               
  Rab                   5.4361     
  Aahb                  87.0000

--Link1--
%nproc=40
%mem=50gb
# mp2/aug-cc-pVTZ pop=ChelpG opt=(z-matrix,MaxCycles=1000,MaxStep=1,CalcFC) freq

Title: Rab = 5.6361 Aabh = -3.0000

0 1
 F
 X                    1     1. 
 H                    1    Rah      2     Aahb
 N                    1    Rab      2     90.      3    0.0        0
 H(Iso=2)                    4    R1       3    A1       2     0.       0
 H(Iso=2)                    4    R2       3    A2       2     D1     0
 H(Iso=2)                    4    R2       3    A2       2    -D1     0
       Variables:
  R1                   1.0125     
  R2                 1.0125              
  A1                  111.5610
  A2                   111.5610       
  Rah                   0.9572      
  D1                   120.0
               
  Rab                   5.6361     
  Aahb                  87.0000

--Link1--
%nproc=40
%mem=50gb
# mp2/aug-cc-pVTZ pop=ChelpG opt=(z-matrix,MaxCycles=1000,MaxStep=1,CalcFC) freq

Title: Rab = 2.1361 Aabh = -2.0000

0 1
 F
 X                    1     1. 
 H                    1    Rah      2     Aahb
 N                    1    Rab      2     90.      3    0.0        0
 H(Iso=2)                    4    R1       3    A1       2     0.       0
 H(Iso=2)                    4    R2       3    A2       2     D1     0
 H(Iso=2)                    4    R2       3    A2       2    -D1     0
       Variables:
  R1                   1.0125     
  R2                 1.0125              
  A1                  111.5610
  A2                   111.5610       
  Rah                   0.9572      
  D1                   120.0
               
  Rab                   2.1361     
  Aahb                  88.0000

--Link1--
%nproc=40
%mem=50gb
# mp2/aug-cc-pVTZ pop=ChelpG opt=(z-matrix,MaxCycles=1000,MaxStep=1,CalcFC) freq

Title: Rab = 2.2361 Aabh = -2.0000

0 1
 F
 X                    1     1. 
 H                    1    Rah      2     Aahb
 N                    1    Rab      2     90.      3    0.0        0
 H(Iso=2)                    4    R1       3    A1       2     0.       0
 H(Iso=2)                    4    R2       3    A2       2     D1     0
 H(Iso=2)                    4    R2       3    A2       2    -D1     0
       Variables:
  R1                   1.0125     
  R2                 1.0125              
  A1                  111.5610
  A2                   111.5610       
  Rah                   0.9572      
  D1                   120.0
               
  Rab                   2.2361     
  Aahb                  88.0000

--Link1--
%nproc=40
%mem=50gb
# mp2/aug-cc-pVTZ pop=ChelpG opt=(z-matrix,MaxCycles=1000,MaxStep=1,CalcFC) freq

Title: Rab = 2.3361 Aabh = -2.0000

0 1
 F
 X                    1     1. 
 H                    1    Rah      2     Aahb
 N                    1    Rab      2     90.      3    0.0        0
 H(Iso=2)                    4    R1       3    A1       2     0.       0
 H(Iso=2)                    4    R2       3    A2       2     D1     0
 H(Iso=2)                    4    R2       3    A2       2    -D1     0
       Variables:
  R1                   1.0125     
  R2                 1.0125              
  A1                  111.5610
  A2                   111.5610       
  Rah                   0.9572      
  D1                   120.0
               
  Rab                   2.3361     
  Aahb                  88.0000

--Link1--
%nproc=40
%mem=50gb
# mp2/aug-cc-pVTZ pop=ChelpG opt=(z-matrix,MaxCycles=1000,MaxStep=1,CalcFC) freq

Title: Rab = 2.4361 Aabh = -2.0000

0 1
 F
 X                    1     1. 
 H                    1    Rah      2     Aahb
 N                    1    Rab      2     90.      3    0.0        0
 H(Iso=2)                    4    R1       3    A1       2     0.       0
 H(Iso=2)                    4    R2       3    A2       2     D1     0
 H(Iso=2)                    4    R2       3    A2       2    -D1     0
       Variables:
  R1                   1.0125     
  R2                 1.0125              
  A1                  111.5610
  A2                   111.5610       
  Rah                   0.9572      
  D1                   120.0
               
  Rab                   2.4361     
  Aahb                  88.0000

--Link1--
%nproc=40
%mem=50gb
# mp2/aug-cc-pVTZ pop=ChelpG opt=(z-matrix,MaxCycles=1000,MaxStep=1,CalcFC) freq

Title: Rab = 2.5361 Aabh = -2.0000

0 1
 F
 X                    1     1. 
 H                    1    Rah      2     Aahb
 N                    1    Rab      2     90.      3    0.0        0
 H(Iso=2)                    4    R1       3    A1       2     0.       0
 H(Iso=2)                    4    R2       3    A2       2     D1     0
 H(Iso=2)                    4    R2       3    A2       2    -D1     0
       Variables:
  R1                   1.0125     
  R2                 1.0125              
  A1                  111.5610
  A2                   111.5610       
  Rah                   0.9572      
  D1                   120.0
               
  Rab                   2.5361     
  Aahb                  88.0000

--Link1--
%nproc=40
%mem=50gb
# mp2/aug-cc-pVTZ pop=ChelpG opt=(z-matrix,MaxCycles=1000,MaxStep=1,CalcFC) freq

Title: Rab = 2.6361 Aabh = -2.0000

0 1
 F
 X                    1     1. 
 H                    1    Rah      2     Aahb
 N                    1    Rab      2     90.      3    0.0        0
 H(Iso=2)                    4    R1       3    A1       2     0.       0
 H(Iso=2)                    4    R2       3    A2       2     D1     0
 H(Iso=2)                    4    R2       3    A2       2    -D1     0
       Variables:
  R1                   1.0125     
  R2                 1.0125              
  A1                  111.5610
  A2                   111.5610       
  Rah                   0.9572      
  D1                   120.0
               
  Rab                   2.6361     
  Aahb                  88.0000

--Link1--
%nproc=40
%mem=50gb
# mp2/aug-cc-pVTZ pop=ChelpG opt=(z-matrix,MaxCycles=1000,MaxStep=1,CalcFC) freq

Title: Rab = 2.7361 Aabh = -2.0000

0 1
 F
 X                    1     1. 
 H                    1    Rah      2     Aahb
 N                    1    Rab      2     90.      3    0.0        0
 H(Iso=2)                    4    R1       3    A1       2     0.       0
 H(Iso=2)                    4    R2       3    A2       2     D1     0
 H(Iso=2)                    4    R2       3    A2       2    -D1     0
       Variables:
  R1                   1.0125     
  R2                 1.0125              
  A1                  111.5610
  A2                   111.5610       
  Rah                   0.9572      
  D1                   120.0
               
  Rab                   2.7361     
  Aahb                  88.0000

--Link1--
%nproc=40
%mem=50gb
# mp2/aug-cc-pVTZ pop=ChelpG opt=(z-matrix,MaxCycles=1000,MaxStep=1,CalcFC) freq

Title: Rab = 2.8361 Aabh = -2.0000

0 1
 F
 X                    1     1. 
 H                    1    Rah      2     Aahb
 N                    1    Rab      2     90.      3    0.0        0
 H(Iso=2)                    4    R1       3    A1       2     0.       0
 H(Iso=2)                    4    R2       3    A2       2     D1     0
 H(Iso=2)                    4    R2       3    A2       2    -D1     0
       Variables:
  R1                   1.0125     
  R2                 1.0125              
  A1                  111.5610
  A2                   111.5610       
  Rah                   0.9572      
  D1                   120.0
               
  Rab                   2.8361     
  Aahb                  88.0000

--Link1--
%nproc=40
%mem=50gb
# mp2/aug-cc-pVTZ pop=ChelpG opt=(z-matrix,MaxCycles=1000,MaxStep=1,CalcFC) freq

Title: Rab = 2.9361 Aabh = -2.0000

0 1
 F
 X                    1     1. 
 H                    1    Rah      2     Aahb
 N                    1    Rab      2     90.      3    0.0        0
 H(Iso=2)                    4    R1       3    A1       2     0.       0
 H(Iso=2)                    4    R2       3    A2       2     D1     0
 H(Iso=2)                    4    R2       3    A2       2    -D1     0
       Variables:
  R1                   1.0125     
  R2                 1.0125              
  A1                  111.5610
  A2                   111.5610       
  Rah                   0.9572      
  D1                   120.0
               
  Rab                   2.9361     
  Aahb                  88.0000

--Link1--
%nproc=40
%mem=50gb
# mp2/aug-cc-pVTZ pop=ChelpG opt=(z-matrix,MaxCycles=1000,MaxStep=1,CalcFC) freq

Title: Rab = 3.0361 Aabh = -2.0000

0 1
 F
 X                    1     1. 
 H                    1    Rah      2     Aahb
 N                    1    Rab      2     90.      3    0.0        0
 H(Iso=2)                    4    R1       3    A1       2     0.       0
 H(Iso=2)                    4    R2       3    A2       2     D1     0
 H(Iso=2)                    4    R2       3    A2       2    -D1     0
       Variables:
  R1                   1.0125     
  R2                 1.0125              
  A1                  111.5610
  A2                   111.5610       
  Rah                   0.9572      
  D1                   120.0
               
  Rab                   3.0361     
  Aahb                  88.0000

--Link1--
%nproc=40
%mem=50gb
# mp2/aug-cc-pVTZ pop=ChelpG opt=(z-matrix,MaxCycles=1000,MaxStep=1,CalcFC) freq

Title: Rab = 3.1361 Aabh = -2.0000

0 1
 F
 X                    1     1. 
 H                    1    Rah      2     Aahb
 N                    1    Rab      2     90.      3    0.0        0
 H(Iso=2)                    4    R1       3    A1       2     0.       0
 H(Iso=2)                    4    R2       3    A2       2     D1     0
 H(Iso=2)                    4    R2       3    A2       2    -D1     0
       Variables:
  R1                   1.0125     
  R2                 1.0125              
  A1                  111.5610
  A2                   111.5610       
  Rah                   0.9572      
  D1                   120.0
               
  Rab                   3.1361     
  Aahb                  88.0000

--Link1--
%nproc=40
%mem=50gb
# mp2/aug-cc-pVTZ pop=ChelpG opt=(z-matrix,MaxCycles=1000,MaxStep=1,CalcFC) freq

Title: Rab = 3.2361 Aabh = -2.0000

0 1
 F
 X                    1     1. 
 H                    1    Rah      2     Aahb
 N                    1    Rab      2     90.      3    0.0        0
 H(Iso=2)                    4    R1       3    A1       2     0.       0
 H(Iso=2)                    4    R2       3    A2       2     D1     0
 H(Iso=2)                    4    R2       3    A2       2    -D1     0
       Variables:
  R1                   1.0125     
  R2                 1.0125              
  A1                  111.5610
  A2                   111.5610       
  Rah                   0.9572      
  D1                   120.0
               
  Rab                   3.2361     
  Aahb                  88.0000

--Link1--
%nproc=40
%mem=50gb
# mp2/aug-cc-pVTZ pop=ChelpG opt=(z-matrix,MaxCycles=1000,MaxStep=1,CalcFC) freq

Title: Rab = 3.3361 Aabh = -2.0000

0 1
 F
 X                    1     1. 
 H                    1    Rah      2     Aahb
 N                    1    Rab      2     90.      3    0.0        0
 H(Iso=2)                    4    R1       3    A1       2     0.       0
 H(Iso=2)                    4    R2       3    A2       2     D1     0
 H(Iso=2)                    4    R2       3    A2       2    -D1     0
       Variables:
  R1                   1.0125     
  R2                 1.0125              
  A1                  111.5610
  A2                   111.5610       
  Rah                   0.9572      
  D1                   120.0
               
  Rab                   3.3361     
  Aahb                  88.0000

--Link1--
%nproc=40
%mem=50gb
# mp2/aug-cc-pVTZ pop=ChelpG opt=(z-matrix,MaxCycles=1000,MaxStep=1,CalcFC) freq

Title: Rab = 3.4361 Aabh = -2.0000

0 1
 F
 X                    1     1. 
 H                    1    Rah      2     Aahb
 N                    1    Rab      2     90.      3    0.0        0
 H(Iso=2)                    4    R1       3    A1       2     0.       0
 H(Iso=2)                    4    R2       3    A2       2     D1     0
 H(Iso=2)                    4    R2       3    A2       2    -D1     0
       Variables:
  R1                   1.0125     
  R2                 1.0125              
  A1                  111.5610
  A2                   111.5610       
  Rah                   0.9572      
  D1                   120.0
               
  Rab                   3.4361     
  Aahb                  88.0000

--Link1--
%nproc=40
%mem=50gb
# mp2/aug-cc-pVTZ pop=ChelpG opt=(z-matrix,MaxCycles=1000,MaxStep=1,CalcFC) freq

Title: Rab = 3.5361 Aabh = -2.0000

0 1
 F
 X                    1     1. 
 H                    1    Rah      2     Aahb
 N                    1    Rab      2     90.      3    0.0        0
 H(Iso=2)                    4    R1       3    A1       2     0.       0
 H(Iso=2)                    4    R2       3    A2       2     D1     0
 H(Iso=2)                    4    R2       3    A2       2    -D1     0
       Variables:
  R1                   1.0125     
  R2                 1.0125              
  A1                  111.5610
  A2                   111.5610       