%nproc=40
%mem=50gb
# mp2/aug-cc-pVTZ pop=ChelpG

Title: Rah = 0.8218 Rab = 2.1361 Scan

0 1
 F
 X                    1     1. 
 H                    1    Rah      2     90. 
 N                    1    Rab      2     90.      3    0.0        0
 H                    4    R1       3    A1       2     0.       0
 H                    4    R1       3    A1       2     120.     0
 H                    4    R1       3    A1       2    -120.     0
       Variables:
  R1                   1.0139                   
  A1                  111.9823       
  Rah                   0.8218      
  Rab                   2.1361     

--Link1--
%nproc=40
%mem=50gb
# mp2/aug-cc-pVTZ pop=ChelpG

Title: Rah = 0.8318 Rab = 2.1361 Scan

0 1
 F
 X                    1     1. 
 H                    1    Rah      2     90. 
 N                    1    Rab      2     90.      3    0.0        0
 H                    4    R1       3    A1       2     0.       0
 H                    4    R1       3    A1       2     120.     0
 H                    4    R1       3    A1       2    -120.     0
       Variables:
  R1                   1.0139                   
  A1                  111.9823       
  Rah                   0.8318      
  Rab                   2.1361     

--Link1--
%nproc=40
%mem=50gb
# mp2/aug-cc-pVTZ pop=ChelpG

Title: Rah = 0.8418 Rab = 2.1361 Scan

0 1
 F
 X                    1     1. 
 H                    1    Rah      2     90. 
 N                    1    Rab      2     90.      3    0.0        0
 H                    4    R1       3    A1       2     0.       0
 H                    4    R1       3    A1       2     120.     0
 H                    4    R1       3    A1       2    -120.     0
       Variables:
  R1                   1.0139                   
  A1                  111.9823       
  Rah                   0.8418      
  Rab                   2.1361     

--Link1--
%nproc=40
%mem=50gb
# mp2/aug-cc-pVTZ pop=ChelpG

Title: Rah = 0.8518 Rab = 2.1361 Scan

0 1
 F
 X                    1     1. 
 H                    1    Rah      2     90. 
 N                    1    Rab      2     90.      3    0.0        0
 H                    4    R1       3    A1       2     0.       0
 H                    4    R1       3    A1       2     120.     0
 H                    4    R1       3    A1       2    -120.     0
       Variables:
  R1                   1.0139                   
  A1                  111.9823       
  Rah                   0.8518      
  Rab                   2.1361     

--Link1--
%nproc=40
%mem=50gb
# mp2/aug-cc-pVTZ pop=ChelpG

Title: Rah = 0.8618 Rab = 2.1361 Scan

0 1
 F
 X                    1     1. 
 H                    1    Rah      2     90. 
 N                    1    Rab      2     90.      3    0.0        0
 H                    4    R1       3    A1       2     0.       0
 H                    4    R1       3    A1       2     120.     0
 H                    4    R1       3    A1       2    -120.     0
       Variables:
  R1                   1.0139                   
  A1                  111.9823       
  Rah                   0.8618      
  Rab                   2.1361     

--Link1--
%nproc=40
%mem=50gb
# mp2/aug-cc-pVTZ pop=ChelpG

Title: Rah = 0.8718 Rab = 2.1361 Scan

0 1
 F
 X                    1     1. 
 H                    1    Rah      2     90. 
 N                    1    Rab      2     90.      3    0.0        0
 H                    4    R1       3    A1       2     0.       0
 H                    4    R1       3    A1       2     120.     0
 H                    4    R1       3    A1       2    -120.     0
       Variables:
  R1                   1.0139                   
  A1                  111.9823       
  Rah                   0.8718      
  Rab                   2.1361     

--Link1--
%nproc=40
%mem=50gb
# mp2/aug-cc-pVTZ pop=ChelpG

Title: Rah = 0.8818 Rab = 2.1361 Scan

0 1
 F
 X                    1     1. 
 H                    1    Rah      2     90. 
 N                    1    Rab      2     90.      3    0.0        0
 H                    4    R1       3    A1       2     0.       0
 H                    4    R1       3    A1       2     120.     0
 H                    4    R1       3    A1       2    -120.     0
       Variables:
  R1                   1.0139                   
  A1                  111.9823       
  Rah                   0.8818      
  Rab                   2.1361     

--Link1--
%nproc=40
%mem=50gb
# mp2/aug-cc-pVTZ pop=ChelpG

Title: Rah = 0.8918 Rab = 2.1361 Scan

0 1
 F
 X                    1     1. 
 H                    1    Rah      2     90. 
 N                    1    Rab      2     90.      3    0.0        0
 H                    4    R1       3    A1       2     0.       0
 H                    4    R1       3    A1       2     120.     0
 H                    4    R1       3    A1       2    -120.     0
       Variables:
  R1                   1.0139                   
  A1                  111.9823       
  Rah                   0.8918      
  Rab                   2.1361     

--Link1--
%nproc=40
%mem=50gb
# mp2/aug-cc-pVTZ pop=ChelpG

Title: Rah = 0.9018 Rab = 2.1361 Scan

0 1
 F
 X                    1     1. 
 H                    1    Rah      2     90. 
 N                    1    Rab      2     90.      3    0.0        0
 H                    4    R1       3    A1       2     0.       0
 H                    4    R1       3    A1       2     120.     0
 H                    4    R1       3    A1       2    -120.     0
       Variables:
  R1                   1.0139                   
  A1                  111.9823       
  Rah                   0.9018      
  Rab                   2.1361     

--Link1--
%nproc=40
%mem=50gb
# mp2/aug-cc-pVTZ pop=ChelpG

Title: Rah = 0.9118 Rab = 2.1361 Scan

0 1
 F
 X                    1     1. 
 H                    1    Rah      2     90. 
 N                    1    Rab      2     90.      3    0.0        0
 H                    4    R1       3    A1       2     0.       0
 H                    4    R1       3    A1       2     120.     0
 H                    4    R1       3    A1       2    -120.     0
       Variables:
  R1                   1.0139                   
  A1                  111.9823       
  Rah                   0.9118      
  Rab                   2.1361     

--Link1--
%nproc=40
%mem=50gb
# mp2/aug-cc-pVTZ pop=ChelpG

Title: Rah = 0.9218 Rab = 2.1361 Scan

0 1
 F
 X                    1     1. 
 H                    1    Rah      2     90. 
 N                    1    Rab      2     90.      3    0.0        0
 H                    4    R1       3    A1       2     0.       0
 H                    4    R1       3    A1       2     120.     0
 H                    4    R1       3    A1       2    -120.     0
       Variables:
  R1                   1.0139                   
  A1                  111.9823       
  Rah                   0.9218      
  Rab                   2.1361     

--Link1--
%nproc=40
%mem=50gb
# mp2/aug-cc-pVTZ pop=ChelpG

Title: Rah = 0.9318 Rab = 2.1361 Scan

0 1
 F
 X                    1     1. 
 H                    1    Rah      2     90. 
 N                    1    Rab      2     90.      3    0.0        0
 H                    4    R1       3    A1       2     0.       0
 H                    4    R1       3    A1       2     120.     0
 H                    4    R1       3    A1       2    -120.     0
       Variables:
  R1                   1.0139                   
  A1                  111.9823       
  Rah                   0.9318      
  Rab                   2.1361     

--Link1--
%nproc=40
%mem=50gb
# mp2/aug-cc-pVTZ pop=ChelpG

Title: Rah = 0.9418 Rab = 2.1361 Scan

0 1
 F
 X                    1     1. 
 H                    1    Rah      2     90. 
 N                    1    Rab      2     90.      3    0.0        0
 H                    4    R1       3    A1       2     0.       0
 H                    4    R1       3    A1       2     120.     0
 H                    4    R1       3    A1       2    -120.     0
       Variables:
  R1                   1.0139                   
  A1                  111.9823       
  Rah                   0.9418      
  Rab                   2.1361     

--Link1--
%nproc=40
%mem=50gb
# mp2/aug-cc-pVTZ pop=ChelpG

Title: Rah = 0.9518 Rab = 2.1361 Scan

0 1
 F
 X                    1     1. 
 H                    1    Rah      2     90. 
 N                    1    Rab      2     90.      3    0.0        0
 H                    4    R1       3    A1       2     0.       0
 H                    4    R1       3    A1       2     120.     0
 H                    4    R1       3    A1       2    -120.     0
       Variables:
  R1                   1.0139                   
  A1                  111.9823       
  Rah                   0.9518      
  Rab                   2.1361     

--Link1--
%nproc=40
%mem=50gb
# mp2/aug-cc-pVTZ pop=ChelpG

Title: Rah = 0.9618 Rab = 2.1361 Scan

0 1
 F
 X                    1     1. 
 H                    1    Rah      2     90. 
 N                    1    Rab      2     90.      3    0.0        0
 H                    4    R1       3    A1       2     0.       0
 H                    4    R1       3    A1       2     120.     0
 H                    4    R1       3    A1       2    -120.     0
       Variables:
  R1                   1.0139                   
  A1                  111.9823       
  Rah                   0.9618      
  Rab                   2.1361     

--Link1--
%nproc=40
%mem=50gb
# mp2/aug-cc-pVTZ pop=ChelpG

Title: Rah = 0.9718 Rab = 2.1361 Scan

0 1
 F
 X                    1     1. 
 H                    1    Rah      2     90. 
 N                    1    Rab      2     90.      3    0.0        0
 H                    4    R1       3    A1       2     0.       0
 H                    4    R1       3    A1       2     120.     0
 H                    4    R1       3    A1       2    -120.     0
       Variables:
  R1                   1.0139                   
  A1                  111.9823       
  Rah                   0.9718      
  Rab                   2.1361     

--Link1--
%nproc=40
%mem=50gb
# mp2/aug-cc-pVTZ pop=ChelpG

Title: Rah = 0.9818 Rab = 2.1361 Scan

0 1
 F
 X                    1     1. 
 H                    1    Rah      2     90. 
 N                    1    Rab      2     90.      3    0.0        0
 H                    4    R1       3    A1       2     0.       0
 H                    4    R1       3    A1       2     120.     0
 H                    4    R1       3    A1       2    -120.     0
       Variables:
  R1                   1.0139                   
  A1                  111.9823       
  Rah                   0.9818      
  Rab                   2.1361     

--Link1--
%nproc=40
%mem=50gb
# mp2/aug-cc-pVTZ pop=ChelpG

Title: Rah = 0.9918 Rab = 2.1361 Scan

0 1
 F
 X                    1     1. 
 H                    1    Rah      2     90. 
 N                    1    Rab      2     90.      3    0.0        0
 H                    4    R1       3    A1       2     0.       0
 H                    4    R1       3    A1       2     120.     0
 H                    4    R1       3    A1       2    -120.     0
       Variables:
  R1                   1.0139                   
  A1                  111.9823       
  Rah                   0.9918      
  Rab                   2.1361     

--Link1--
%nproc=40
%mem=50gb
# mp2/aug-cc-pVTZ pop=ChelpG

Title: Rah = 1.0018 Rab = 2.1361 Scan

0 1
 F
 X                    1     1. 
 H                    1    Rah      2     90. 
 N                    1    Rab      2     90.      3    0.0        0
 H                    4    R1       3    A1       2     0.       0
 H                    4    R1       3    A1       2     120.     0
 H                    4    R1       3    A1       2    -120.     0
       Variables:
  R1                   1.0139                   
  A1                  111.9823       
  Rah                   1.0018      
  Rab                   2.1361     

--Link1--
%nproc=40
%mem=50gb
# mp2/aug-cc-pVTZ pop=ChelpG

Title: Rah = 1.0118 Rab = 2.1361 Scan

0 1
 F
 X                    1     1. 
 H                    1    Rah      2     90. 
 N                    1    Rab      2     90.      3    0.0        0
 H                    4    R1       3    A1       2     0.       0
 H                    4    R1       3    A1       2     120.     0
 H                    4    R1       3    A1       2    -120.     0
       Variables:
  R1                   1.0139                   
  A1                  111.9823       
  Rah                   1.0118      
  Rab                   2.1361     

--Link1--
%nproc=40
%mem=50gb
# mp2/aug-cc-pVTZ pop=ChelpG

Title: Rah = 1.0218 Rab = 2.1361 Scan

0 1
 F
 X                    1     1. 
 H                    1    Rah      2     90. 
 N                    1    Rab      2     90.      3    0.0        0
 H                    4    R1       3    A1       2     0.       0
 H                    4    R1       3    A1       2     120.     0
 H                    4    R1       3    A1       2    -120.     0
       Variables:
  R1                   1.0139                   
  A1                  111.9823       
  Rah                   1.0218      
  Rab                   2.1361     

--Link1--
%nproc=40
%mem=50gb
# mp2/aug-cc-pVTZ pop=ChelpG

Title: Rah = 0.8218 Rab = 2.2361 Scan

0 1
 F
 X                    1     1. 
 H                    1    Rah      2     90. 
 N                    1    Rab      2     90.      3    0.0        0
 H                    4    R1       3    A1       2     0.       0
 H                    4    R1       3    A1       2     120.     0
 H                    4    R1       3    A1       2    -120.     0
       Variables:
  R1                   1.0135                   
  A1                  111.7735       
  Rah                   0.8218      
  Rab                   2.2361     

--Link1--
%nproc=40
%mem=50gb
# mp2/aug-cc-pVTZ pop=ChelpG

Title: Rah = 0.8318 Rab = 2.2361 Scan

0 1
 F
 X                    1     1. 
 H                    1    Rah      2     90. 
 N                    1    Rab      2     90.      3    0.0        0
 H                    4    R1       3    A1       2     0.       0
 H                    4    R1       3    A1       2     120.     0
 H                    4    R1       3    A1       2    -120.     0
       Variables:
  R1                   1.0135                   
  A1                  111.7735       
  Rah                   0.8318      
  Rab                   2.2361     

--Link1--
%nproc=40
%mem=50gb
# mp2/aug-cc-pVTZ pop=ChelpG

Title: Rah = 0.8418 Rab = 2.2361 Scan

0 1
 F
 X                    1     1. 
 H                    1    Rah      2     90. 
 N                    1    Rab      2     90.      3    0.0        0
 H                    4    R1       3    A1       2     0.       0
 H                    4    R1       3    A1       2     120.     0
 H                    4    R1       3    A1       2    -120.     0
       Variables:
  R1                   1.0135                   
  A1                  111.7735       
  Rah                   0.8418      
  Rab                   2.2361     

--Link1--
%nproc=40
%mem=50gb
# mp2/aug-cc-pVTZ pop=ChelpG

Title: Rah = 0.8518 Rab = 2.2361 Scan

0 1
 F
 X                    1     1. 
 H                    1    Rah      2     90. 
 N                    1    Rab      2     90.      3    0.0        0
 H                    4    R1       3    A1       2     0.       0
 H                    4    R1       3    A1       2     120.     0
 H                    4    R1       3    A1       2    -120.     0
       Variables:
  R1                   1.0135                   
  A1                  111.7735       
  Rah                   0.8518      
  Rab                   2.2361     

--Link1--
%nproc=40
%mem=50gb
# mp2/aug-cc-pVTZ pop=ChelpG

Title: Rah = 0.8618 Rab = 2.2361 Scan

0 1
 F
 X                    1     1. 
 H                    1    Rah      2     90. 
 N                    1    Rab      2     90.      3    0.0        0
 H                    4    R1       3    A1       2     0.       0
 H                    4    R1       3    A1       2     120.     0
 H                    4    R1       3    A1       2    -120.     0
       Variables:
  R1                   1.0135                   
  A1                  111.7735       
  Rah                   0.8618      
  Rab                   2.2361     

--Link1--
%nproc=40
%mem=50gb
# mp2/aug-cc-pVTZ pop=ChelpG

Title: Rah = 0.8718 Rab = 2.2361 Scan

0 1
 F
 X                    1     1. 
 H                    1    Rah      2     90. 
 N                    1    Rab      2     90.      3    0.0        0
 H                    4    R1       3    A1       2     0.       0
 H                    4    R1       3    A1       2     120.     0
 H                    4    R1       3    A1       2    -120.     0
       Variables:
  R1                   1.0135                   
  A1                  111.7735       
  Rah                   0.8718      
  Rab                   2.2361     

--Link1--
%nproc=40
%mem=50gb
# mp2/aug-cc-pVTZ pop=ChelpG

Title: Rah = 0.8818 Rab = 2.2361 Scan

0 1
 F
 X                    1     1. 
 H                    1    Rah      2     90. 
 N                    1    Rab      2     90.      3    0.0        0
 H                    4    R1       3    A1       2     0.       0
 H                    4    R1       3    A1       2     120.     0
 H                    4    R1       3    A1       2    -120.     0
       Variables:
  R1                   1.0135                   
  A1                  111.7735       
  Rah                   0.8818      
  Rab                   2.2361     

--Link1--
%nproc=40
%mem=50gb
# mp2/aug-cc-pVTZ pop=ChelpG

Title: Rah = 0.8918 Rab = 2.2361 Scan

0 1
 F
 X                    1     1. 
 H                    1    Rah      2     90. 
 N                    1    Rab      2     90.      3    0.0        0
 H                    4    R1       3    A1       2     0.       0
 H                    4    R1       3    A1       2     120.     0
 H                    4    R1       3    A1       2    -120.     0
       Variables:
  R1                   1.0135                   
  A1                  111.7735       
  Rah                   0.8918      
  Rab                   2.2361     

--Link1--
%nproc=40
%mem=50gb
# mp2/aug-cc-pVTZ pop=ChelpG

Title: Rah = 0.9018 Rab = 2.2361 Scan

0 1
 F
 X                    1     1. 
 H                    1    Rah      2     90. 
 N                    1    Rab      2     90.      3    0.0        0
 H                    4    R1       3    A1       2     0.       0
 H                    4    R1       3    A1       2     120.     0
 H                    4    R1       3    A1       2    -120.     0
       Variables:
  R1                   1.0135                   
  A1                  111.7735       
  Rah                   0.9018      
  Rab                   2.2361     

--Link1--
%nproc=40
%mem=50gb
# mp2/aug-cc-pVTZ pop=ChelpG

Title: Rah = 0.9118 Rab = 2.2361 Scan

0 1
 F
 X                    1     1. 
 H                    1    Rah      2     90. 
 N                    1    Rab      2     90.      3    0.0        0
 H                    4    R1       3    A1       2     0.       0
 H                    4    R1       3    A1       2     120.     0
 H                    4    R1       3    A1       2    -120.     0
       Variables:
  R1                   1.0135                   
  A1                  111.7735       
  Rah                   0.9118      
  Rab                   2.2361     

--Link1--
%nproc=40
%mem=50gb
# mp2/aug-cc-pVTZ pop=ChelpG

Title: Rah = 0.9218 Rab = 2.2361 Scan

0 1
 F
 X                    1     1. 
 H                    1    Rah      2     90. 
 N                    1    Rab      2     90.      3    0.0        0
 H                    4    R1       3    A1       2     0.       0
 H                    4    R1       3    A1       2     120.     0
 H                    4    R1       3    A1       2    -120.     0
       Variables:
  R1                   1.0135                   
  A1                  111.7735       
  Rah                   0.9218      
  Rab                   2.2361     

--Link1--
%nproc=40
%mem=50gb
# mp2/aug-cc-pVTZ pop=ChelpG

Title: Rah = 0.9318 Rab = 2.2361 Scan

0 1
 F
 X                    1     1. 
 H                    1    Rah      2     90. 
 N                    1    Rab      2     90.      3    0.0        0
 H                    4    R1       3    A1       2     0.       0
 H                    4    R1       3    A1       2     120.     0
 H                    4    R1       3    A1       2    -120.     0
       Variables:
  R1                   1.0135                   
  A1                  111.7735       
  Rah                   0.9318      
  Rab                   2.2361     

--Link1--
%nproc=40
%mem=50gb
# mp2/aug-cc-pVTZ pop=ChelpG

Title: Rah = 0.9418 Rab = 2.2361 Scan

0 1
 F
 X                    1     1. 
 H                    1    Rah      2     90. 
 N                    1    Rab      2     90.      3    0.0        0
 H                    4    R1       3    A1       2     0.       0
 H                    4    R1       3    A1       2     120.     0
 H                    4    R1       3    A1       2    -120.     0
       Variables:
  R1                   1.0135                   
  A1                  111.7735       
  Rah                   0.9418      
  Rab                   2.2361     

--Link1--
%nproc=40
%mem=50gb
# mp2/aug-cc-pVTZ pop=ChelpG

Title: Rah = 0.9518 Rab = 2.2361 Scan

0 1
 F
 X                    1     1. 
 H                    1    Rah      2     90. 
 N                    1    Rab      2     90.      3    0.0        0
 H                    4    R1       3    A1       2     0.       0
 H                    4    R1       3    A1       2     120.     0
 H                    4    R1       3    A1       2    -120.     0
       Variables:
  R1                   1.0135                   
  A1                  111.7735       
  Rah                   0.9518      
  Rab                   2.2361     

--Link1--
%nproc=40
%mem=50gb
# mp2/aug-cc-pVTZ pop=ChelpG

Title: Rah = 0.9618 Rab = 2.2361 Scan

0 1
 F
 X                    1     1. 
 H                    1    Rah      2     90. 
 N                    1    Rab      2     90.      3    0.0        0
 H                    4    R1       3    A1       2     0.       0
 H                    4    R1       3    A1       2     120.     0
 H                    4    R1       3    A1       2    -120.     0
       Variables:
  R1                   1.0135                   
  A1                  111.7735       
  Rah                   0.9618      
  Rab                   2.2361     

--Link1--
%nproc=40
%mem=50gb
# mp2/aug-cc-pVTZ pop=ChelpG

Title: Rah = 0.9718 Rab = 2.2361 Scan

0 1
 F
 X                    1     1. 
 H                    1    Rah      2     90. 
 N                    1    Rab      2     90.      3    0.0        0
 H                    4    R1       3    A1       2     0.       0
 H                    4    R1       3    A1       2     120.     0
 H                    4    R1       3    A1       2    -120.     0
       Variables:
  R1                   1.0135                   
  A1                  111.7735       
  Rah                   0.9718      
  Rab                   2.2361     

--Link1--
%nproc=40
%mem=50gb
# mp2/aug-cc-pVTZ pop=ChelpG

Title: Rah = 0.9818 Rab = 2.2361 Scan

0 1
 F
 X                    1     1. 
 H                    1    Rah      2     90. 
 N                    1    Rab      2     90.      3    0.0        0
 H                    4    R1       3    A1       2     0.       0
 H                    4    R1       3    A1       2     120.     0
 H                    4    R1       3    A1       2    -120.     0
       Variables:
  R1                   1.0135                   
  A1                  111.7735       
  Rah                   0.9818      
  Rab                   2.2361     

--Link1--
%nproc=40
%mem=50gb
# mp2/aug-cc-pVTZ pop=ChelpG

Title: Rah = 0.9918 Rab = 2.2361 Scan

0 1
 F
 X                    1     1. 
 H                    1    Rah      2     90. 
 N                    1    Rab      2     90.      3    0.0        0
 H                    4    R1       3    A1       2     0.       0
 H                    4    R1       3    A1       2     120.     0
 H                    4    R1       3    A1       2    -120.     0
       Variables:
  R1                   1.0135                   
  A1                  111.7735       
  Rah                   0.9918      
  Rab                   2.2361     

--Link1--
%nproc=40
%mem=50gb
# mp2/aug-cc-pVTZ pop=ChelpG

Title: Rah = 1.0018 Rab = 2.2361 Scan

0 1
 F
 X                    1     1. 
 H                    1    Rah      2     90. 
 N                    1    Rab      2     90.      3    0.0        0
 H                    4    R1       3    A1       2     0.       0
 H                    4    R1       3    A1       2     120.     0
 H                    4    R1       3    A1       2    -120.     0
       Variables:
  R1                   1.0135                   
  A1                  111.7735       
  Rah                   1.0018      
  Rab                   2.2361     

--Link1--
%nproc=40
%mem=50gb
# mp2/aug-cc-pVTZ pop=ChelpG

Title: Rah = 1.0118 Rab = 2.2361 Scan

0 1
 F
 X                    1     1. 
 H                    1    Rah      2     90. 
 N                    1    Rab      2     90.      3    0.0        0
 H                    4    R1       3    A1       2     0.       0
 H                    4    R1       3    A1       2     120.     0
 H                    4    R1       3    A1       2    -120.     0
       Variables:
  R1                   1.0135                   
  A1                  111.7735       
  Rah                   1.0118      
  Rab                   2.2361     

--Link1--
%nproc=40
%mem=50gb
# mp2/aug-cc-pVTZ pop=ChelpG

Title: Rah = 1.0218 Rab = 2.2361 Scan

0 1
 F
 X                    1     1. 
 H                    1    Rah      2     90. 
 N                    1    Rab      2     90.      3    0.0        0
 H                    4    R1       3    A1       2     0.       0
 H                    4    R1       3    A1       2     120.     0
 H                    4    R1       3    A1       2    -120.     0
       Variables:
  R1                   1.0135                   
  A1                  111.7735       
  Rah                   1.0218      
  Rab                   2.2361     

--Link1--
%nproc=40
%mem=50gb
# mp2/aug-cc-pVTZ pop=ChelpG

Title: Rah = 0.8218 Rab = 2.3361 Scan

0 1
 F
 X                    1     1. 
 H                    1    Rah      2     90. 
 N                    1    Rab      2     90.      3    0.0        0
 H                    4    R1       3    A1       2     0.       0
 H                    4    R1       3    A1       2     120.     0
 H                    4    R1       3    A1       2    -120.     0
       Variables:
  R1                   1.0132                   
  A1                  111.6637       
  Rah                   0.8218      
  Rab                   2.3361     

--Link1--
%nproc=40
%mem=50gb
# mp2/aug-cc-pVTZ pop=ChelpG

Title: Rah = 0.8318 Rab = 2.3361 Scan

0 1
 F
 X                    1     1. 
 H                    1    Rah      2     90. 
 N                    1    Rab      2     90.      3    0.0        0
 H                    4    R1       3    A1       2     0.       0
 H                    4    R1       3    A1       2     120.     0
 H                    4    R1       3    A1       2    -120.     0
       Variables:
  R1                   1.0132                   
  A1                  111.6637       
  Rah                   0.8318      
  Rab                   2.3361     

--Link1--
%nproc=40
%mem=50gb
# mp2/aug-cc-pVTZ pop=ChelpG

Title: Rah = 0.8418 Rab = 2.3361 Scan

0 1
 F
 X                    1     1. 
 H                    1    Rah      2     90. 
 N                    1    Rab      2     90.      3    0.0        0
 H                    4    R1       3    A1       2     0.       0
 H                    4    R1       3    A1       2     120.     0
 H                    4    R1       3    A1       2    -120.     0
       Variables:
  R1                   1.0132                   
  A1                  111.6637       
  Rah                   0.8418      
  Rab                   2.3361     

--Link1--
%nproc=40
%mem=50gb
# mp2/aug-cc-pVTZ pop=ChelpG

Title: Rah = 0.8518 Rab = 2.3361 Scan

0 1
 F
 X                    1     1. 
 H                    1    Rah      2     90. 
 N                    1    Rab      2     90.      3    0.0        0
 H                    4    R1       3    A1       2     0.       0
 H                    4    R1       3    A1       2     120.     0
 H                    4    R1       3    A1       2    -120.     0
       Variables:
  R1                   1.0132                   
  A1                  111.6637       
  Rah                   0.8518      
  Rab                   2.3361     

--Link1--
%nproc=40
%mem=50gb
# mp2/aug-cc-pVTZ pop=ChelpG

Title: Rah = 0.8618 Rab = 2.3361 Scan

0 1
 F
 X                    1     1. 
 H                    1    Rah      2     90. 
 N                    1    Rab      2     90.      3    0.0        0
 H                    4    R1       3    A1       2     0.       0
 H                    4    R1       3    A1       2     120.     0
 H                    4    R1       3    A1       2    -120.     0
       Variables:
  R1                   1.0132                   
  A1                  111.6637       
  Rah                   0.8618      
  Rab                   2.3361     

--Link1--
%nproc=40
%mem=50gb
# mp2/aug-cc-pVTZ pop=ChelpG

Title: Rah = 0.8718 Rab = 2.3361 Scan

0 1
 F
 X                    1     1. 
 H                    1    Rah      2     90. 