%nproc=40
%mem=50gb
# mp2/aug-cc-pVTZ Pop=ChelpG opt=(z-matrix,MaxCycles=1000) freq

Title: Rab = 4.9432 Ahb = 4.0000 Optimization

0 1
 O1
 X2                   1     1. 
 H3                   1    Rah      2     Aahb 
 N4                   1    Rab      2     90.      3    0.0    0
 H5(Iso=2.014)                   1    R1       2     90.      3    A1       0
 H6(Iso=2.014)                   4    R2       1    A2       2    -90.      0
 H7(Iso=2.014)                   4    R3       1    A3       6    D1       0
 H8(Iso=2.014)                   4    R3       1    A3       6    -D1      0
       Variables:
  R1                    0.9602                  
  R2                   1.0128                   
  R3                   1.0125                   
  A1                 104.3590                    
  A2                  107.3941                    
  A3                  114.1773                    
  D1                  118.2039           
  Rah                  0.9748          
            
  Rab                  4.9432    
  Aahb                 94.0000

--Link1--
%nproc=40
%mem=50gb
# mp2/aug-cc-pVTZ Pop=ChelpG opt=(z-matrix,MaxCycles=1000) freq

Title: Rab = 5.1432 Ahb = 4.0000 Optimization

0 1
 O1
 X2                   1     1. 
 H3                   1    Rah      2     Aahb 
 N4                   1    Rab      2     90.      3    0.0    0
 H5(Iso=2.014)                   1    R1       2     90.      3    A1       0
 H6(Iso=2.014)                   4    R2       1    A2       2    -90.      0
 H7(Iso=2.014)                   4    R3       1    A3       6    D1       0
 H8(Iso=2.014)                   4    R3       1    A3       6    -D1      0
       Variables:
  R1                    0.9602                  
  R2                   1.0128                   
  R3                   1.0125                   
  A1                 104.3590                    
  A2                  107.3941                    
  A3                  114.1773                    
  D1                  118.2039           
  Rah                  0.9748          
            
  Rab                  5.1432    
  Aahb                 94.0000

--Link1--
%nproc=40
%mem=50gb
# mp2/aug-cc-pVTZ Pop=ChelpG opt=(z-matrix,MaxCycles=1000) freq

Title: Rab = 5.3432 Ahb = 4.0000 Optimization

0 1
 O1
 X2                   1     1. 
 H3                   1    Rah      2     Aahb 
 N4                   1    Rab      2     90.      3    0.0    0
 H5(Iso=2.014)                   1    R1       2     90.      3    A1       0
 H6(Iso=2.014)                   4    R2       1    A2       2    -90.      0
 H7(Iso=2.014)                   4    R3       1    A3       6    D1       0
 H8(Iso=2.014)                   4    R3       1    A3       6    -D1      0
       Variables:
  R1                    0.9602                  
  R2                   1.0128                   
  R3                   1.0125                   
  A1                 104.3590                    
  A2                  107.3941                    
  A3                  114.1773                    
  D1                  118.2039           
  Rah                  0.9748          
            
  Rab                  5.3432    
  Aahb                 94.0000

--Link1--
%nproc=40
%mem=50gb
# mp2/aug-cc-pVTZ Pop=ChelpG opt=(z-matrix,MaxCycles=1000) freq

Title: Rab = 5.5432 Ahb = 4.0000 Optimization

0 1
 O1
 X2                   1     1. 
 H3                   1    Rah      2     Aahb 
 N4                   1    Rab      2     90.      3    0.0    0
 H5(Iso=2.014)                   1    R1       2     90.      3    A1       0
 H6(Iso=2.014)                   4    R2       1    A2       2    -90.      0
 H7(Iso=2.014)                   4    R3       1    A3       6    D1       0
 H8(Iso=2.014)                   4    R3       1    A3       6    -D1      0
       Variables:
  R1                    0.9602                  
  R2                   1.0128                   
  R3                   1.0125                   
  A1                 104.3590                    
  A2                  107.3941                    
  A3                  114.1773                    
  D1                  118.2039           
  Rah                  0.9748          
            
  Rab                  5.5432    
  Aahb                 94.0000

--Link1--
%nproc=40
%mem=50gb
# mp2/aug-cc-pVTZ Pop=ChelpG opt=(z-matrix,MaxCycles=1000) freq

Title: Rab = 5.7432 Ahb = 4.0000 Optimization

0 1
 O1
 X2                   1     1. 
 H3                   1    Rah      2     Aahb 
 N4                   1    Rab      2     90.      3    0.0    0
 H5(Iso=2.014)                   1    R1       2     90.      3    A1       0
 H6(Iso=2.014)                   4    R2       1    A2       2    -90.      0
 H7(Iso=2.014)                   4    R3       1    A3       6    D1       0
 H8(Iso=2.014)                   4    R3       1    A3       6    -D1      0
       Variables:
  R1                    0.9602                  
  R2                   1.0128                   
  R3                   1.0125                   
  A1                 104.3590                    
  A2                  107.3941                    
  A3                  114.1773                    
  D1                  118.2039           
  Rah                  0.9748          
            
  Rab                  5.7432    
  Aahb                 94.0000

--Link1--
%nproc=40
%mem=50gb
# mp2/aug-cc-pVTZ Pop=ChelpG opt=(z-matrix,MaxCycles=1000) freq

Title: Rab = 5.9432 Ahb = 4.0000 Optimization

0 1
 O1
 X2                   1     1. 
 H3                   1    Rah      2     Aahb 
 N4                   1    Rab      2     90.      3    0.0    0
 H5(Iso=2.014)                   1    R1       2     90.      3    A1       0
 H6(Iso=2.014)                   4    R2       1    A2       2    -90.      0
 H7(Iso=2.014)                   4    R3       1    A3       6    D1       0
 H8(Iso=2.014)                   4    R3       1    A3       6    -D1      0
       Variables:
  R1                    0.9602                  
  R2                   1.0128                   
  R3                   1.0125                   
  A1                 104.3590                    
  A2                  107.3941                    
  A3                  114.1773                    
  D1                  118.2039           
  Rah                  0.9748          
            
  Rab                  5.9432    
  Aahb                 94.0000

--Link1--
%nproc=40
%mem=50gb
# mp2/aug-cc-pVTZ Pop=ChelpG opt=(z-matrix,MaxCycles=1000) freq

Title: Rab = 2.4432 Ahb = 5.0000 Optimization

0 1
 O1
 X2                   1     1. 
 H3                   1    Rah      2     Aahb 
 N4                   1    Rab      2     90.      3    0.0    0
 H5(Iso=2.014)                   1    R1       2     90.      3    A1       0
 H6(Iso=2.014)                   4    R2       1    A2       2    -90.      0
 H7(Iso=2.014)                   4    R3       1    A3       6    D1       0
 H8(Iso=2.014)                   4    R3       1    A3       6    -D1      0
       Variables:
  R1                    0.9602                  
  R2                   1.0128                   
  R3                   1.0125                   
  A1                 104.3590                    
  A2                  107.3941                    
  A3                  114.1773                    
  D1                  118.2039           
  Rah                  0.9748          
            
  Rab                  2.4432    
  Aahb                 95.0000

--Link1--
%nproc=40
%mem=50gb
# mp2/aug-cc-pVTZ Pop=ChelpG opt=(z-matrix,MaxCycles=1000) freq

Title: Rab = 2.5432 Ahb = 5.0000 Optimization

0 1
 O1
 X2                   1     1. 
 H3                   1    Rah      2     Aahb 
 N4                   1    Rab      2     90.      3    0.0    0
 H5(Iso=2.014)                   1    R1       2     90.      3    A1       0
 H6(Iso=2.014)                   4    R2       1    A2       2    -90.      0
 H7(Iso=2.014)                   4    R3       1    A3       6    D1       0
 H8(Iso=2.014)                   4    R3       1    A3       6    -D1      0
       Variables:
  R1                    0.9602                  
  R2                   1.0128                   
  R3                   1.0125                   
  A1                 104.3590                    
  A2                  107.3941                    
  A3                  114.1773                    
  D1                  118.2039           
  Rah                  0.9748          
            
  Rab                  2.5432    
  Aahb                 95.0000

--Link1--
%nproc=40
%mem=50gb
# mp2/aug-cc-pVTZ Pop=ChelpG opt=(z-matrix,MaxCycles=1000) freq

Title: Rab = 2.6432 Ahb = 5.0000 Optimization

0 1
 O1
 X2                   1     1. 
 H3                   1    Rah      2     Aahb 
 N4                   1    Rab      2     90.      3    0.0    0
 H5(Iso=2.014)                   1    R1       2     90.      3    A1       0
 H6(Iso=2.014)                   4    R2       1    A2       2    -90.      0
 H7(Iso=2.014)                   4    R3       1    A3       6    D1       0
 H8(Iso=2.014)                   4    R3       1    A3       6    -D1      0
       Variables:
  R1                    0.9602                  
  R2                   1.0128                   
  R3                   1.0125                   
  A1                 104.3590                    
  A2                  107.3941                    
  A3                  114.1773                    
  D1                  118.2039           
  Rah                  0.9748          
            
  Rab                  2.6432    
  Aahb                 95.0000

--Link1--
%nproc=40
%mem=50gb
# mp2/aug-cc-pVTZ Pop=ChelpG opt=(z-matrix,MaxCycles=1000) freq

Title: Rab = 2.7432 Ahb = 5.0000 Optimization

0 1
 O1
 X2                   1     1. 
 H3                   1    Rah      2     Aahb 
 N4                   1    Rab      2     90.      3    0.0    0
 H5(Iso=2.014)                   1    R1       2     90.      3    A1       0
 H6(Iso=2.014)                   4    R2       1    A2       2    -90.      0
 H7(Iso=2.014)                   4    R3       1    A3       6    D1       0
 H8(Iso=2.014)                   4    R3       1    A3       6    -D1      0
       Variables:
  R1                    0.9602                  
  R2                   1.0128                   
  R3                   1.0125                   
  A1                 104.3590                    
  A2                  107.3941                    
  A3                  114.1773                    
  D1                  118.2039           
  Rah                  0.9748          
            
  Rab                  2.7432    
  Aahb                 95.0000

--Link1--
%nproc=40
%mem=50gb
# mp2/aug-cc-pVTZ Pop=ChelpG opt=(z-matrix,MaxCycles=1000) freq

Title: Rab = 2.8432 Ahb = 5.0000 Optimization

0 1
 O1
 X2                   1     1. 
 H3                   1    Rah      2     Aahb 
 N4                   1    Rab      2     90.      3    0.0    0
 H5(Iso=2.014)                   1    R1       2     90.      3    A1       0
 H6(Iso=2.014)                   4    R2       1    A2       2    -90.      0
 H7(Iso=2.014)                   4    R3       1    A3       6    D1       0
 H8(Iso=2.014)                   4    R3       1    A3       6    -D1      0
       Variables:
  R1                    0.9602                  
  R2                   1.0128                   
  R3                   1.0125                   
  A1                 104.3590                    
  A2                  107.3941                    
  A3                  114.1773                    
  D1                  118.2039           
  Rah                  0.9748          
            
  Rab                  2.8432    
  Aahb                 95.0000

--Link1--
%nproc=40
%mem=50gb
# mp2/aug-cc-pVTZ Pop=ChelpG opt=(z-matrix,MaxCycles=1000) freq

Title: Rab = 2.9432 Ahb = 5.0000 Optimization

0 1
 O1
 X2                   1     1. 
 H3                   1    Rah      2     Aahb 
 N4                   1    Rab      2     90.      3    0.0    0
 H5(Iso=2.014)                   1    R1       2     90.      3    A1       0
 H6(Iso=2.014)                   4    R2       1    A2       2    -90.      0
 H7(Iso=2.014)                   4    R3       1    A3       6    D1       0
 H8(Iso=2.014)                   4    R3       1    A3       6    -D1      0
       Variables:
  R1                    0.9602                  
  R2                   1.0128                   
  R3                   1.0125                   
  A1                 104.3590                    
  A2                  107.3941                    
  A3                  114.1773                    
  D1                  118.2039           
  Rah                  0.9748          
            
  Rab                  2.9432    
  Aahb                 95.0000

--Link1--
%nproc=40
%mem=50gb
# mp2/aug-cc-pVTZ Pop=ChelpG opt=(z-matrix,MaxCycles=1000) freq

Title: Rab = 3.0432 Ahb = 5.0000 Optimization

0 1
 O1
 X2                   1     1. 
 H3                   1    Rah      2     Aahb 
 N4                   1    Rab      2     90.      3    0.0    0
 H5(Iso=2.014)                   1    R1       2     90.      3    A1       0
 H6(Iso=2.014)                   4    R2       1    A2       2    -90.      0
 H7(Iso=2.014)                   4    R3       1    A3       6    D1       0
 H8(Iso=2.014)                   4    R3       1    A3       6    -D1      0
       Variables:
  R1                    0.9602                  
  R2                   1.0128                   
  R3                   1.0125                   
  A1                 104.3590                    
  A2                  107.3941                    
  A3                  114.1773                    
  D1                  118.2039           
  Rah                  0.9748          
            
  Rab                  3.0432    
  Aahb                 95.0000

--Link1--
%nproc=40
%mem=50gb
# mp2/aug-cc-pVTZ Pop=ChelpG opt=(z-matrix,MaxCycles=1000) freq

Title: Rab = 3.1432 Ahb = 5.0000 Optimization

0 1
 O1
 X2                   1     1. 
 H3                   1    Rah      2     Aahb 
 N4                   1    Rab      2     90.      3    0.0    0
 H5(Iso=2.014)                   1    R1       2     90.      3    A1       0
 H6(Iso=2.014)                   4    R2       1    A2       2    -90.      0
 H7(Iso=2.014)                   4    R3       1    A3       6    D1       0
 H8(Iso=2.014)                   4    R3       1    A3       6    -D1      0
       Variables:
  R1                    0.9602                  
  R2                   1.0128                   
  R3                   1.0125                   
  A1                 104.3590                    
  A2                  107.3941                    
  A3                  114.1773                    
  D1                  118.2039           
  Rah                  0.9748          
            
  Rab                  3.1432    
  Aahb                 95.0000

--Link1--
%nproc=40
%mem=50gb
# mp2/aug-cc-pVTZ Pop=ChelpG opt=(z-matrix,MaxCycles=1000) freq

Title: Rab = 3.2432 Ahb = 5.0000 Optimization

0 1
 O1
 X2                   1     1. 
 H3                   1    Rah      2     Aahb 
 N4                   1    Rab      2     90.      3    0.0    0
 H5(Iso=2.014)                   1    R1       2     90.      3    A1       0
 H6(Iso=2.014)                   4    R2       1    A2       2    -90.      0
 H7(Iso=2.014)                   4    R3       1    A3       6    D1       0
 H8(Iso=2.014)                   4    R3       1    A3       6    -D1      0
       Variables:
  R1                    0.9602                  
  R2                   1.0128                   
  R3                   1.0125                   
  A1                 104.3590                    
  A2                  107.3941                    
  A3                  114.1773                    
  D1                  118.2039           
  Rah                  0.9748          
            
  Rab                  3.2432    
  Aahb                 95.0000

--Link1--
%nproc=40
%mem=50gb
# mp2/aug-cc-pVTZ Pop=ChelpG opt=(z-matrix,MaxCycles=1000) freq

Title: Rab = 3.3432 Ahb = 5.0000 Optimization

0 1
 O1
 X2                   1     1. 
 H3                   1    Rah      2     Aahb 
 N4                   1    Rab      2     90.      3    0.0    0
 H5(Iso=2.014)                   1    R1       2     90.      3    A1       0
 H6(Iso=2.014)                   4    R2       1    A2       2    -90.      0
 H7(Iso=2.014)                   4    R3       1    A3       6    D1       0
 H8(Iso=2.014)                   4    R3       1    A3       6    -D1      0
       Variables:
  R1                    0.9602                  
  R2                   1.0128                   
  R3                   1.0125                   
  A1                 104.3590                    
  A2                  107.3941                    
  A3                  114.1773                    
  D1                  118.2039           
  Rah                  0.9748          
            
  Rab                  3.3432    
  Aahb                 95.0000

--Link1--
%nproc=40
%mem=50gb
# mp2/aug-cc-pVTZ Pop=ChelpG opt=(z-matrix,MaxCycles=1000) freq

Title: Rab = 3.4432 Ahb = 5.0000 Optimization

0 1
 O1
 X2                   1     1. 
 H3                   1    Rah      2     Aahb 
 N4                   1    Rab      2     90.      3    0.0    0
 H5(Iso=2.014)                   1    R1       2     90.      3    A1       0
 H6(Iso=2.014)                   4    R2       1    A2       2    -90.      0
 H7(Iso=2.014)                   4    R3       1    A3       6    D1       0
 H8(Iso=2.014)                   4    R3       1    A3       6    -D1      0
       Variables:
  R1                    0.9602                  
  R2                   1.0128                   
  R3                   1.0125                   
  A1                 104.3590                    
  A2                  107.3941                    
  A3                  114.1773                    
  D1                  118.2039           
  Rah                  0.9748          
            
  Rab                  3.4432    
  Aahb                 95.0000

--Link1--
%nproc=40
%mem=50gb
# mp2/aug-cc-pVTZ Pop=ChelpG opt=(z-matrix,MaxCycles=1000) freq

Title: Rab = 3.5432 Ahb = 5.0000 Optimization

0 1
 O1
 X2                   1     1. 
 H3                   1    Rah      2     Aahb 
 N4                   1    Rab      2     90.      3    0.0    0
 H5(Iso=2.014)                   1    R1       2     90.      3    A1       0
 H6(Iso=2.014)                   4    R2       1    A2       2    -90.      0
 H7(Iso=2.014)                   4    R3       1    A3       6    D1       0
 H8(Iso=2.014)                   4    R3       1    A3       6    -D1      0
       Variables:
  R1                    0.9602                  
  R2                   1.0128                   
  R3                   1.0125                   
  A1                 104.3590                    
  A2                  107.3941                    
  A3                  114.1773                    
  D1                  118.2039           
  Rah                  0.9748          
            
  Rab                  3.5432    
  Aahb                 95.0000

--Link1--
%nproc=40
%mem=50gb
# mp2/aug-cc-pVTZ Pop=ChelpG opt=(z-matrix,MaxCycles=1000) freq

Title: Rab = 3.6432 Ahb = 5.0000 Optimization

0 1
 O1
 X2                   1     1. 
 H3                   1    Rah      2     Aahb 
 N4                   1    Rab      2     90.      3    0.0    0
 H5(Iso=2.014)                   1    R1       2     90.      3    A1       0
 H6(Iso=2.014)                   4    R2       1    A2       2    -90.      0
 H7(Iso=2.014)                   4    R3       1    A3       6    D1       0
 H8(Iso=2.014)                   4    R3       1    A3       6    -D1      0
       Variables:
  R1                    0.9602                  
  R2                   1.0128                   
  R3                   1.0125                   
  A1                 104.3590                    
  A2                  107.3941                    
  A3                  114.1773                    
  D1                  118.2039           
  Rah                  0.9748          
            
  Rab                  3.6432    
  Aahb                 95.0000

--Link1--
%nproc=40
%mem=50gb
# mp2/aug-cc-pVTZ Pop=ChelpG opt=(z-matrix,MaxCycles=1000) freq

Title: Rab = 3.7432 Ahb = 5.0000 Optimization

0 1
 O1
 X2                   1     1. 
 H3                   1    Rah      2     Aahb 
 N4                   1    Rab      2     90.      3    0.0    0
 H5(Iso=2.014)                   1    R1       2     90.      3    A1       0
 H6(Iso=2.014)                   4    R2       1    A2       2    -90.      0
 H7(Iso=2.014)                   4    R3       1    A3       6    D1       0
 H8(Iso=2.014)                   4    R3       1    A3       6    -D1      0
       Variables:
  R1                    0.9602                  
  R2                   1.0128                   
  R3                   1.0125                   
  A1                 104.3590                    
  A2                  107.3941                    
  A3                  114.1773                    
  D1                  118.2039           
  Rah                  0.9748          
            
  Rab                  3.7432    
  Aahb                 95.0000

--Link1--
%nproc=40
%mem=50gb
# mp2/aug-cc-pVTZ Pop=ChelpG opt=(z-matrix,MaxCycles=1000) freq

Title: Rab = 3.8432 Ahb = 5.0000 Optimization

0 1
 O1
 X2                   1     1. 
 H3                   1    Rah      2     Aahb 
 N4                   1    Rab      2     90.      3    0.0    0
 H5(Iso=2.014)                   1    R1       2     90.      3    A1       0
 H6(Iso=2.014)                   4    R2       1    A2       2    -90.      0
 H7(Iso=2.014)                   4    R3       1    A3       6    D1       0
 H8(Iso=2.014)                   4    R3       1    A3       6    -D1      0
       Variables:
  R1                    0.9602                  
  R2                   1.0128                   
  R3                   1.0125                   
  A1                 104.3590                    
  A2                  107.3941                    
  A3                  114.1773                    
  D1                  118.2039           
  Rah                  0.9748          
            
  Rab                  3.8432    
  Aahb                 95.0000

--Link1--
%nproc=40
%mem=50gb
# mp2/aug-cc-pVTZ Pop=ChelpG opt=(z-matrix,MaxCycles=1000) freq

Title: Rab = 3.9432 Ahb = 5.0000 Optimization

0 1
 O1
 X2                   1     1. 
 H3                   1    Rah      2     Aahb 
 N4                   1    Rab      2     90.      3    0.0    0
 H5(Iso=2.014)                   1    R1       2     90.      3    A1       0
 H6(Iso=2.014)                   4    R2       1    A2       2    -90.      0
 H7(Iso=2.014)                   4    R3       1    A3       6    D1       0
 H8(Iso=2.014)                   4    R3       1    A3       6    -D1      0
       Variables:
  R1                    0.9602                  
  R2                   1.0128                   
  R3                   1.0125                   
  A1                 104.3590                    
  A2                  107.3941                    
  A3                  114.1773                    
  D1                  118.2039           
  Rah                  0.9748          
            
  Rab                  3.9432    
  Aahb                 95.0000

--Link1--
%nproc=40
%mem=50gb
# mp2/aug-cc-pVTZ Pop=ChelpG opt=(z-matrix,MaxCycles=1000) freq

Title: Rab = 4.1432 Ahb = 5.0000 Optimization

0 1
 O1
 X2                   1     1. 
 H3                   1    Rah      2     Aahb 
 N4                   1    Rab      2     90.      3    0.0    0
 H5(Iso=2.014)                   1    R1       2     90.      3    A1       0
 H6(Iso=2.014)                   4    R2       1    A2       2    -90.      0
 H7(Iso=2.014)                   4    R3       1    A3       6    D1       0
 H8(Iso=2.014)                   4    R3       1    A3       6    -D1      0
       Variables:
  R1                    0.9602                  
  R2                   1.0128                   
  R3                   1.0125                   
  A1                 104.3590                    
  A2                  107.3941                    
  A3                  114.1773                    
  D1                  118.2039           
  Rah                  0.9748          
            
  Rab                  4.1432    
  Aahb                 95.0000

--Link1--
%nproc=40
%mem=50gb
# mp2/aug-cc-pVTZ Pop=ChelpG opt=(z-matrix,MaxCycles=1000) freq

Title: Rab = 4.3432 Ahb = 5.0000 Optimization

0 1
 O1
 X2                   1     1. 
 H3                   1    Rah      2     Aahb 
 N4                   1    Rab      2     90.      3    0.0    0
 H5(Iso=2.014)                   1    R1       2     90.      3    A1       0
 H6(Iso=2.014)                   4    R2       1    A2       2    -90.      0
 H7(Iso=2.014)                   4    R3       1    A3       6    D1       0
 H8(Iso=2.014)                   4    R3       1    A3       6    -D1      0
       Variables:
  R1                    0.9602                  
  R2                   1.0128                   
  R3                   1.0125                   
  A1                 104.3590                    
  A2                  107.3941                    
  A3                  114.1773                    
  D1                  118.2039           
  Rah                  0.9748          
            
  Rab                  4.3432    
  Aahb                 95.0000

--Link1--
%nproc=40
%mem=50gb
# mp2/aug-cc-pVTZ Pop=ChelpG opt=(z-matrix,MaxCycles=1000) freq

Title: Rab = 4.5432 Ahb = 5.0000 Optimization

0 1
 O1
 X2                   1     1. 
 H3                   1    Rah      2     Aahb 
 N4                   1    Rab      2     90.      3    0.0    0
 H5(Iso=2.014)                   1    R1       2     90.      3    A1       0
 H6(Iso=2.014)                   4    R2       1    A2       2    -90.      0
 H7(Iso=2.014)                   4    R3       1    A3       6    D1       0
 H8(Iso=2.014)                   4    R3       1    A3       6    -D1      0
       Variables:
  R1                    0.9602                  
  R2                   1.0128                   
  R3                   1.0125                   
  A1                 104.3590                    
  A2                  107.3941                    
  A3                  114.1773                    
  D1                  118.2039           
  Rah                  0.9748          
            
  Rab                  4.5432    
  Aahb                 95.0000

--Link1--
%nproc=40
%mem=50gb
# mp2/aug-cc-pVTZ Pop=ChelpG opt=(z-matrix,MaxCycles=1000) freq

Title: Rab = 4.7432 Ahb = 5.0000 Optimization

0 1
 O1
 X2                   1     1. 
 H3                   1    Rah      2     Aahb 
 N4                   1    Rab      2     90.      3    0.0    0
 H5(Iso=2.014)                   1    R1       2     90.      3    A1       0
 H6(Iso=2.014)                   4    R2       1    A2       2    -90.      0
 H7(Iso=2.014)                   4    R3       1    A3       6    D1       0
 H8(Iso=2.014)                   4    R3       1    A3       6    -D1      0
       Variables:
  R1                    0.9602                  
  R2                   1.0128                   
  R3                   1.0125                   
  A1                 104.3590                    
  A2                  107.3941                    
  A3                  114.1773                    
  D1                  118.2039           
  Rah                  0.9748          
            
  Rab                  4.7432    
  Aahb                 95.0000

--Link1--
%nproc=40
%mem=50gb
# mp2/aug-cc-pVTZ Pop=ChelpG opt=(z-matrix,MaxCycles=1000) freq

Title: Rab = 4.9432 Ahb = 5.0000 Optimization

0 1
 O1
 X2                   1     1. 
 H3                   1    Rah      2     Aahb 
 N4                   1    Rab      2     90.      3    0.0    0
 H5(Iso=2.014)                   1    R1       2     90.      3    A1       0
 H6(Iso=2.014)                   4    R2       1    A2       2    -90.      0
 H7(Iso=2.014)                   4    R3       1    A3       6    D1       0
 H8(Iso=2.014)                   4    R3       1    A3       6    -D1      0
       Variables:
  R1                    0.9602                  
  R2                   1.0128                   
  R3                   1.0125                   
  A1                 104.3590                    
  A2                  107.3941                    
  A3                  114.1773                    
  D1                  118.2039           
  Rah                  0.9748          
            
  Rab                  4.9432    
  Aahb                 95.0000

--Link1--
%nproc=40
%mem=50gb
# mp2/aug-cc-pVTZ Pop=ChelpG opt=(z-matrix,MaxCycles=1000) freq

Title: Rab = 5.1432 Ahb = 5.0000 Optimization

0 1
 O1
 X2                   1     1. 
 H3                   1    Rah      2     Aahb 
 N4                   1    Rab      2     90.      3    0.0    0
 H5(Iso=2.014)                   1    R1       2     90.      3    A1       0
 H6(Iso=2.014)                   4    R2       1    A2       2    -90.      0
 H7(Iso=2.014)                   4    R3       1    A3       6    D1       0
 H8(Iso=2.014)                   4    R3       1    A3       6    -D1      0
       Variables:
  R1                    0.9602                  
  R2                   1.0128                   