%nproc=40
%mem=50gb
# mp2/aug-cc-pVTZ Pop=ChelpG

Title: Rah = 0.8613 Rab = 2.4432 Scans

0 1
 O1
 X2                   1     1. 
 H3                   1    Rah      2     90. 
 N4                   1    Rab      2     90.      3    0.0    0
 H5                   1    R1       2     90.      3    A1       0
 H6                   4    R2       1    A2       2    -90.      0
 H7                   4    R3       1    A3       6    D1       0
 H8                   4    R3       1    A3       6    -D1      0
       Variables:
  R1                    0.9592                  
  R2                   1.0142                   
  R3                   1.0136                   
  A1                 107.0696                    
  A2                  109.8563                    
  A3                  113.3670                    
  D1                  118.9618           
  Rah                  0.8613          
  Rab                  2.4432    

--Link1--
%nproc=40
%mem=50gb
# mp2/aug-cc-pVTZ Pop=ChelpG

Title: Rah = 0.8713 Rab = 2.4432 Scans

0 1
 O1
 X2                   1     1. 
 H3                   1    Rah      2     90. 
 N4                   1    Rab      2     90.      3    0.0    0
 H5                   1    R1       2     90.      3    A1       0
 H6                   4    R2       1    A2       2    -90.      0
 H7                   4    R3       1    A3       6    D1       0
 H8                   4    R3       1    A3       6    -D1      0
       Variables:
  R1                    0.9592                  
  R2                   1.0142                   
  R3                   1.0136                   
  A1                 107.0696                    
  A2                  109.8563                    
  A3                  113.3670                    
  D1                  118.9618           
  Rah                  0.8713          
  Rab                  2.4432    

--Link1--
%nproc=40
%mem=50gb
# mp2/aug-cc-pVTZ Pop=ChelpG

Title: Rah = 0.8813 Rab = 2.4432 Scans

0 1
 O1
 X2                   1     1. 
 H3                   1    Rah      2     90. 
 N4                   1    Rab      2     90.      3    0.0    0
 H5                   1    R1       2     90.      3    A1       0
 H6                   4    R2       1    A2       2    -90.      0
 H7                   4    R3       1    A3       6    D1       0
 H8                   4    R3       1    A3       6    -D1      0
       Variables:
  R1                    0.9592                  
  R2                   1.0142                   
  R3                   1.0136                   
  A1                 107.0696                    
  A2                  109.8563                    
  A3                  113.3670                    
  D1                  118.9618           
  Rah                  0.8813          
  Rab                  2.4432    

--Link1--
%nproc=40
%mem=50gb
# mp2/aug-cc-pVTZ Pop=ChelpG

Title: Rah = 0.8913 Rab = 2.4432 Scans

0 1
 O1
 X2                   1     1. 
 H3                   1    Rah      2     90. 
 N4                   1    Rab      2     90.      3    0.0    0
 H5                   1    R1       2     90.      3    A1       0
 H6                   4    R2       1    A2       2    -90.      0
 H7                   4    R3       1    A3       6    D1       0
 H8                   4    R3       1    A3       6    -D1      0
       Variables:
  R1                    0.9592                  
  R2                   1.0142                   
  R3                   1.0136                   
  A1                 107.0696                    
  A2                  109.8563                    
  A3                  113.3670                    
  D1                  118.9618           
  Rah                  0.8913          
  Rab                  2.4432    

--Link1--
%nproc=40
%mem=50gb
# mp2/aug-cc-pVTZ Pop=ChelpG

Title: Rah = 0.9013 Rab = 2.4432 Scans

0 1
 O1
 X2                   1     1. 
 H3                   1    Rah      2     90. 
 N4                   1    Rab      2     90.      3    0.0    0
 H5                   1    R1       2     90.      3    A1       0
 H6                   4    R2       1    A2       2    -90.      0
 H7                   4    R3       1    A3       6    D1       0
 H8                   4    R3       1    A3       6    -D1      0
       Variables:
  R1                    0.9592                  
  R2                   1.0142                   
  R3                   1.0136                   
  A1                 107.0696                    
  A2                  109.8563                    
  A3                  113.3670                    
  D1                  118.9618           
  Rah                  0.9013          
  Rab                  2.4432    

--Link1--
%nproc=40
%mem=50gb
# mp2/aug-cc-pVTZ Pop=ChelpG

Title: Rah = 0.9113 Rab = 2.4432 Scans

0 1
 O1
 X2                   1     1. 
 H3                   1    Rah      2     90. 
 N4                   1    Rab      2     90.      3    0.0    0
 H5                   1    R1       2     90.      3    A1       0
 H6                   4    R2       1    A2       2    -90.      0
 H7                   4    R3       1    A3       6    D1       0
 H8                   4    R3       1    A3       6    -D1      0
       Variables:
  R1                    0.9592                  
  R2                   1.0142                   
  R3                   1.0136                   
  A1                 107.0696                    
  A2                  109.8563                    
  A3                  113.3670                    
  D1                  118.9618           
  Rah                  0.9113          
  Rab                  2.4432    

--Link1--
%nproc=40
%mem=50gb
# mp2/aug-cc-pVTZ Pop=ChelpG

Title: Rah = 0.9213 Rab = 2.4432 Scans

0 1
 O1
 X2                   1     1. 
 H3                   1    Rah      2     90. 
 N4                   1    Rab      2     90.      3    0.0    0
 H5                   1    R1       2     90.      3    A1       0
 H6                   4    R2       1    A2       2    -90.      0
 H7                   4    R3       1    A3       6    D1       0
 H8                   4    R3       1    A3       6    -D1      0
       Variables:
  R1                    0.9592                  
  R2                   1.0142                   
  R3                   1.0136                   
  A1                 107.0696                    
  A2                  109.8563                    
  A3                  113.3670                    
  D1                  118.9618           
  Rah                  0.9213          
  Rab                  2.4432    

--Link1--
%nproc=40
%mem=50gb
# mp2/aug-cc-pVTZ Pop=ChelpG

Title: Rah = 0.9313 Rab = 2.4432 Scans

0 1
 O1
 X2                   1     1. 
 H3                   1    Rah      2     90. 
 N4                   1    Rab      2     90.      3    0.0    0
 H5                   1    R1       2     90.      3    A1       0
 H6                   4    R2       1    A2       2    -90.      0
 H7                   4    R3       1    A3       6    D1       0
 H8                   4    R3       1    A3       6    -D1      0
       Variables:
  R1                    0.9592                  
  R2                   1.0142                   
  R3                   1.0136                   
  A1                 107.0696                    
  A2                  109.8563                    
  A3                  113.3670                    
  D1                  118.9618           
  Rah                  0.9313          
  Rab                  2.4432    

--Link1--
%nproc=40
%mem=50gb
# mp2/aug-cc-pVTZ Pop=ChelpG

Title: Rah = 0.9413 Rab = 2.4432 Scans

0 1
 O1
 X2                   1     1. 
 H3                   1    Rah      2     90. 
 N4                   1    Rab      2     90.      3    0.0    0
 H5                   1    R1       2     90.      3    A1       0
 H6                   4    R2       1    A2       2    -90.      0
 H7                   4    R3       1    A3       6    D1       0
 H8                   4    R3       1    A3       6    -D1      0
       Variables:
  R1                    0.9592                  
  R2                   1.0142                   
  R3                   1.0136                   
  A1                 107.0696                    
  A2                  109.8563                    
  A3                  113.3670                    
  D1                  118.9618           
  Rah                  0.9413          
  Rab                  2.4432    

--Link1--
%nproc=40
%mem=50gb
# mp2/aug-cc-pVTZ Pop=ChelpG

Title: Rah = 0.9513 Rab = 2.4432 Scans

0 1
 O1
 X2                   1     1. 
 H3                   1    Rah      2     90. 
 N4                   1    Rab      2     90.      3    0.0    0
 H5                   1    R1       2     90.      3    A1       0
 H6                   4    R2       1    A2       2    -90.      0
 H7                   4    R3       1    A3       6    D1       0
 H8                   4    R3       1    A3       6    -D1      0
       Variables:
  R1                    0.9592                  
  R2                   1.0142                   
  R3                   1.0136                   
  A1                 107.0696                    
  A2                  109.8563                    
  A3                  113.3670                    
  D1                  118.9618           
  Rah                  0.9513          
  Rab                  2.4432    

--Link1--
%nproc=40
%mem=50gb
# mp2/aug-cc-pVTZ Pop=ChelpG

Title: Rah = 0.9613 Rab = 2.4432 Scans

0 1
 O1
 X2                   1     1. 
 H3                   1    Rah      2     90. 
 N4                   1    Rab      2     90.      3    0.0    0
 H5                   1    R1       2     90.      3    A1       0
 H6                   4    R2       1    A2       2    -90.      0
 H7                   4    R3       1    A3       6    D1       0
 H8                   4    R3       1    A3       6    -D1      0
       Variables:
  R1                    0.9592                  
  R2                   1.0142                   
  R3                   1.0136                   
  A1                 107.0696                    
  A2                  109.8563                    
  A3                  113.3670                    
  D1                  118.9618           
  Rah                  0.9613          
  Rab                  2.4432    

--Link1--
%nproc=40
%mem=50gb
# mp2/aug-cc-pVTZ Pop=ChelpG

Title: Rah = 0.9713 Rab = 2.4432 Scans

0 1
 O1
 X2                   1     1. 
 H3                   1    Rah      2     90. 
 N4                   1    Rab      2     90.      3    0.0    0
 H5                   1    R1       2     90.      3    A1       0
 H6                   4    R2       1    A2       2    -90.      0
 H7                   4    R3       1    A3       6    D1       0
 H8                   4    R3       1    A3       6    -D1      0
       Variables:
  R1                    0.9592                  
  R2                   1.0142                   
  R3                   1.0136                   
  A1                 107.0696                    
  A2                  109.8563                    
  A3                  113.3670                    
  D1                  118.9618           
  Rah                  0.9713          
  Rab                  2.4432    

--Link1--
%nproc=40
%mem=50gb
# mp2/aug-cc-pVTZ Pop=ChelpG

Title: Rah = 0.9813 Rab = 2.4432 Scans

0 1
 O1
 X2                   1     1. 
 H3                   1    Rah      2     90. 
 N4                   1    Rab      2     90.      3    0.0    0
 H5                   1    R1       2     90.      3    A1       0
 H6                   4    R2       1    A2       2    -90.      0
 H7                   4    R3       1    A3       6    D1       0
 H8                   4    R3       1    A3       6    -D1      0
       Variables:
  R1                    0.9592                  
  R2                   1.0142                   
  R3                   1.0136                   
  A1                 107.0696                    
  A2                  109.8563                    
  A3                  113.3670                    
  D1                  118.9618           
  Rah                  0.9813          
  Rab                  2.4432    

--Link1--
%nproc=40
%mem=50gb
# mp2/aug-cc-pVTZ Pop=ChelpG

Title: Rah = 0.9913 Rab = 2.4432 Scans

0 1
 O1
 X2                   1     1. 
 H3                   1    Rah      2     90. 
 N4                   1    Rab      2     90.      3    0.0    0
 H5                   1    R1       2     90.      3    A1       0
 H6                   4    R2       1    A2       2    -90.      0
 H7                   4    R3       1    A3       6    D1       0
 H8                   4    R3       1    A3       6    -D1      0
       Variables:
  R1                    0.9592                  
  R2                   1.0142                   
  R3                   1.0136                   
  A1                 107.0696                    
  A2                  109.8563                    
  A3                  113.3670                    
  D1                  118.9618           
  Rah                  0.9913          
  Rab                  2.4432    

--Link1--
%nproc=40
%mem=50gb
# mp2/aug-cc-pVTZ Pop=ChelpG

Title: Rah = 1.0013 Rab = 2.4432 Scans

0 1
 O1
 X2                   1     1. 
 H3                   1    Rah      2     90. 
 N4                   1    Rab      2     90.      3    0.0    0
 H5                   1    R1       2     90.      3    A1       0
 H6                   4    R2       1    A2       2    -90.      0
 H7                   4    R3       1    A3       6    D1       0
 H8                   4    R3       1    A3       6    -D1      0
       Variables:
  R1                    0.9592                  
  R2                   1.0142                   
  R3                   1.0136                   
  A1                 107.0696                    
  A2                  109.8563                    
  A3                  113.3670                    
  D1                  118.9618           
  Rah                  1.0013          
  Rab                  2.4432    

--Link1--
%nproc=40
%mem=50gb
# mp2/aug-cc-pVTZ Pop=ChelpG

Title: Rah = 1.0113 Rab = 2.4432 Scans

0 1
 O1
 X2                   1     1. 
 H3                   1    Rah      2     90. 
 N4                   1    Rab      2     90.      3    0.0    0
 H5                   1    R1       2     90.      3    A1       0
 H6                   4    R2       1    A2       2    -90.      0
 H7                   4    R3       1    A3       6    D1       0
 H8                   4    R3       1    A3       6    -D1      0
       Variables:
  R1                    0.9592                  
  R2                   1.0142                   
  R3                   1.0136                   
  A1                 107.0696                    
  A2                  109.8563                    
  A3                  113.3670                    
  D1                  118.9618           
  Rah                  1.0113          
  Rab                  2.4432    

--Link1--
%nproc=40
%mem=50gb
# mp2/aug-cc-pVTZ Pop=ChelpG

Title: Rah = 1.0213 Rab = 2.4432 Scans

0 1
 O1
 X2                   1     1. 
 H3                   1    Rah      2     90. 
 N4                   1    Rab      2     90.      3    0.0    0
 H5                   1    R1       2     90.      3    A1       0
 H6                   4    R2       1    A2       2    -90.      0
 H7                   4    R3       1    A3       6    D1       0
 H8                   4    R3       1    A3       6    -D1      0
       Variables:
  R1                    0.9592                  
  R2                   1.0142                   
  R3                   1.0136                   
  A1                 107.0696                    
  A2                  109.8563                    
  A3                  113.3670                    
  D1                  118.9618           
  Rah                  1.0213          
  Rab                  2.4432    

--Link1--
%nproc=40
%mem=50gb
# mp2/aug-cc-pVTZ Pop=ChelpG

Title: Rah = 1.0313 Rab = 2.4432 Scans

0 1
 O1
 X2                   1     1. 
 H3                   1    Rah      2     90. 
 N4                   1    Rab      2     90.      3    0.0    0
 H5                   1    R1       2     90.      3    A1       0
 H6                   4    R2       1    A2       2    -90.      0
 H7                   4    R3       1    A3       6    D1       0
 H8                   4    R3       1    A3       6    -D1      0
       Variables:
  R1                    0.9592                  
  R2                   1.0142                   
  R3                   1.0136                   
  A1                 107.0696                    
  A2                  109.8563                    
  A3                  113.3670                    
  D1                  118.9618           
  Rah                  1.0313          
  Rab                  2.4432    

--Link1--
%nproc=40
%mem=50gb
# mp2/aug-cc-pVTZ Pop=ChelpG

Title: Rah = 1.0413 Rab = 2.4432 Scans

0 1
 O1
 X2                   1     1. 
 H3                   1    Rah      2     90. 
 N4                   1    Rab      2     90.      3    0.0    0
 H5                   1    R1       2     90.      3    A1       0
 H6                   4    R2       1    A2       2    -90.      0
 H7                   4    R3       1    A3       6    D1       0
 H8                   4    R3       1    A3       6    -D1      0
       Variables:
  R1                    0.9592                  
  R2                   1.0142                   
  R3                   1.0136                   
  A1                 107.0696                    
  A2                  109.8563                    
  A3                  113.3670                    
  D1                  118.9618           
  Rah                  1.0413          
  Rab                  2.4432    

--Link1--
%nproc=40
%mem=50gb
# mp2/aug-cc-pVTZ Pop=ChelpG

Title: Rah = 1.0513 Rab = 2.4432 Scans

0 1
 O1
 X2                   1     1. 
 H3                   1    Rah      2     90. 
 N4                   1    Rab      2     90.      3    0.0    0
 H5                   1    R1       2     90.      3    A1       0
 H6                   4    R2       1    A2       2    -90.      0
 H7                   4    R3       1    A3       6    D1       0
 H8                   4    R3       1    A3       6    -D1      0
       Variables:
  R1                    0.9592                  
  R2                   1.0142                   
  R3                   1.0136                   
  A1                 107.0696                    
  A2                  109.8563                    
  A3                  113.3670                    
  D1                  118.9618           
  Rah                  1.0513          
  Rab                  2.4432    

--Link1--
%nproc=40
%mem=50gb
# mp2/aug-cc-pVTZ Pop=ChelpG

Title: Rah = 1.0613 Rab = 2.4432 Scans

0 1
 O1
 X2                   1     1. 
 H3                   1    Rah      2     90. 
 N4                   1    Rab      2     90.      3    0.0    0
 H5                   1    R1       2     90.      3    A1       0
 H6                   4    R2       1    A2       2    -90.      0
 H7                   4    R3       1    A3       6    D1       0
 H8                   4    R3       1    A3       6    -D1      0
       Variables:
  R1                    0.9592                  
  R2                   1.0142                   
  R3                   1.0136                   
  A1                 107.0696                    
  A2                  109.8563                    
  A3                  113.3670                    
  D1                  118.9618           
  Rah                  1.0613          
  Rab                  2.4432    

--Link1--
%nproc=40
%mem=50gb
# mp2/aug-cc-pVTZ Pop=ChelpG

Title: Rah = 0.8613 Rab = 2.5432 Scans

0 1
 O1
 X2                   1     1. 
 H3                   1    Rah      2     90. 
 N4                   1    Rab      2     90.      3    0.0    0
 H5                   1    R1       2     90.      3    A1       0
 H6                   4    R2       1    A2       2    -90.      0
 H7                   4    R3       1    A3       6    D1       0
 H8                   4    R3       1    A3       6    -D1      0
       Variables:
  R1                    0.9594                  
  R2                   1.0138                   
  R3                   1.0133                   
  A1                 106.1434                    
  A2                  109.1645                    
  A3                  113.5792                    
  D1                  118.7563           
  Rah                  0.8613          
  Rab                  2.5432    

--Link1--
%nproc=40
%mem=50gb
# mp2/aug-cc-pVTZ Pop=ChelpG

Title: Rah = 0.8713 Rab = 2.5432 Scans

0 1
 O1
 X2                   1     1. 
 H3                   1    Rah      2     90. 
 N4                   1    Rab      2     90.      3    0.0    0
 H5                   1    R1       2     90.      3    A1       0
 H6                   4    R2       1    A2       2    -90.      0
 H7                   4    R3       1    A3       6    D1       0
 H8                   4    R3       1    A3       6    -D1      0
       Variables:
  R1                    0.9594                  
  R2                   1.0138                   
  R3                   1.0133                   
  A1                 106.1434                    
  A2                  109.1645                    
  A3                  113.5792                    
  D1                  118.7563           
  Rah                  0.8713          
  Rab                  2.5432    

--Link1--
%nproc=40
%mem=50gb
# mp2/aug-cc-pVTZ Pop=ChelpG

Title: Rah = 0.8813 Rab = 2.5432 Scans

0 1
 O1
 X2                   1     1. 
 H3                   1    Rah      2     90. 
 N4                   1    Rab      2     90.      3    0.0    0
 H5                   1    R1       2     90.      3    A1       0
 H6                   4    R2       1    A2       2    -90.      0
 H7                   4    R3       1    A3       6    D1       0
 H8                   4    R3       1    A3       6    -D1      0
       Variables:
  R1                    0.9594                  
  R2                   1.0138                   
  R3                   1.0133                   
  A1                 106.1434                    
  A2                  109.1645                    
  A3                  113.5792                    
  D1                  118.7563           
  Rah                  0.8813          
  Rab                  2.5432    

--Link1--
%nproc=40
%mem=50gb
# mp2/aug-cc-pVTZ Pop=ChelpG

Title: Rah = 0.8913 Rab = 2.5432 Scans

0 1
 O1
 X2                   1     1. 
 H3                   1    Rah      2     90. 
 N4                   1    Rab      2     90.      3    0.0    0
 H5                   1    R1       2     90.      3    A1       0
 H6                   4    R2       1    A2       2    -90.      0
 H7                   4    R3       1    A3       6    D1       0
 H8                   4    R3       1    A3       6    -D1      0
       Variables:
  R1                    0.9594                  
  R2                   1.0138                   
  R3                   1.0133                   
  A1                 106.1434                    
  A2                  109.1645                    
  A3                  113.5792                    
  D1                  118.7563           
  Rah                  0.8913          
  Rab                  2.5432    

--Link1--
%nproc=40
%mem=50gb
# mp2/aug-cc-pVTZ Pop=ChelpG

Title: Rah = 0.9013 Rab = 2.5432 Scans

0 1
 O1
 X2                   1     1. 
 H3                   1    Rah      2     90. 
 N4                   1    Rab      2     90.      3    0.0    0
 H5                   1    R1       2     90.      3    A1       0
 H6                   4    R2       1    A2       2    -90.      0
 H7                   4    R3       1    A3       6    D1       0
 H8                   4    R3       1    A3       6    -D1      0
       Variables:
  R1                    0.9594                  
  R2                   1.0138                   
  R3                   1.0133                   
  A1                 106.1434                    
  A2                  109.1645                    
  A3                  113.5792                    
  D1                  118.7563           
  Rah                  0.9013          
  Rab                  2.5432    

--Link1--
%nproc=40
%mem=50gb
# mp2/aug-cc-pVTZ Pop=ChelpG

Title: Rah = 0.9113 Rab = 2.5432 Scans

0 1
 O1
 X2                   1     1. 
 H3                   1    Rah      2     90. 
 N4                   1    Rab      2     90.      3    0.0    0
 H5                   1    R1       2     90.      3    A1       0
 H6                   4    R2       1    A2       2    -90.      0
 H7                   4    R3       1    A3       6    D1       0
 H8                   4    R3       1    A3       6    -D1      0
       Variables:
  R1                    0.9594                  
  R2                   1.0138                   
  R3                   1.0133                   
  A1                 106.1434                    
  A2                  109.1645                    
  A3                  113.5792                    
  D1                  118.7563           
  Rah                  0.9113          
  Rab                  2.5432    

--Link1--
%nproc=40
%mem=50gb
# mp2/aug-cc-pVTZ Pop=ChelpG

Title: Rah = 0.9213 Rab = 2.5432 Scans

0 1
 O1
 X2                   1     1. 
 H3                   1    Rah      2     90. 
 N4                   1    Rab      2     90.      3    0.0    0
 H5                   1    R1       2     90.      3    A1       0
 H6                   4    R2       1    A2       2    -90.      0
 H7                   4    R3       1    A3       6    D1       0
 H8                   4    R3       1    A3       6    -D1      0
       Variables:
  R1                    0.9594                  
  R2                   1.0138                   
  R3                   1.0133                   
  A1                 106.1434                    
  A2                  109.1645                    
  A3                  113.5792                    
  D1                  118.7563           
  Rah                  0.9213          
  Rab                  2.5432    

--Link1--
%nproc=40
%mem=50gb
# mp2/aug-cc-pVTZ Pop=ChelpG

Title: Rah = 0.9313 Rab = 2.5432 Scans

0 1
 O1
 X2                   1     1. 
 H3                   1    Rah      2     90. 
 N4                   1    Rab      2     90.      3    0.0    0
 H5                   1    R1       2     90.      3    A1       0
 H6                   4    R2       1    A2       2    -90.      0
 H7                   4    R3       1    A3       6    D1       0
 H8                   4    R3       1    A3       6    -D1      0
       Variables:
  R1                    0.9594                  
  R2                   1.0138                   
  R3                   1.0133                   
  A1                 106.1434                    
  A2                  109.1645                    
  A3                  113.5792                    
  D1                  118.7563           
  Rah                  0.9313          
  Rab                  2.5432    

--Link1--
%nproc=40
%mem=50gb
# mp2/aug-cc-pVTZ Pop=ChelpG

Title: Rah = 0.9413 Rab = 2.5432 Scans

0 1
 O1
 X2                   1     1. 
 H3                   1    Rah      2     90. 
 N4                   1    Rab      2     90.      3    0.0    0
 H5                   1    R1       2     90.      3    A1       0
 H6                   4    R2       1    A2       2    -90.      0
 H7                   4    R3       1    A3       6    D1       0
 H8                   4    R3       1    A3       6    -D1      0
       Variables:
  R1                    0.9594                  
  R2                   1.0138                   
  R3                   1.0133                   
  A1                 106.1434                    
  A2                  109.1645                    
  A3                  113.5792                    
  D1                  118.7563           
  Rah                  0.9413          
  Rab                  2.5432    

--Link1--
%nproc=40
%mem=50gb
# mp2/aug-cc-pVTZ Pop=ChelpG

Title: Rah = 0.9513 Rab = 2.5432 Scans

0 1
 O1
 X2                   1     1. 
 H3                   1    Rah      2     90. 
 N4                   1    Rab      2     90.      3    0.0    0
 H5                   1    R1       2     90.      3    A1       0
 H6                   4    R2       1    A2       2    -90.      0
 H7                   4    R3       1    A3       6    D1       0
 H8                   4    R3       1    A3       6    -D1      0
       Variables:
  R1                    0.9594                  
  R2                   1.0138                   
  R3                   1.0133                   
  A1                 106.1434                    
  A2                  109.1645                    
  A3                  113.5792                    
  D1                  118.7563           
  Rah                  0.9513          
  Rab                  2.5432    

--Link1--
%nproc=40
%mem=50gb
# mp2/aug-cc-pVTZ Pop=ChelpG

Title: Rah = 0.9613 Rab = 2.5432 Scans

0 1
 O1
 X2                   1     1. 
 H3                   1    Rah      2     90. 
 N4                   1    Rab      2     90.      3    0.0    0
 H5                   1    R1       2     90.      3    A1       0
 H6                   4    R2       1    A2       2    -90.      0
 H7                   4    R3       1    A3       6    D1       0